NAME: hfvrp_n200_m40_s02
CUSTOMERS: 200
VEHICLES: 40
NODE_COORD_SECTION
0 50.000 50.000
1 2.610 3.211
2 3.695 60.503
3 25.358 73.128
4 10.552 71.957
5 66.501 56.664
6 4.286 39.322
7 2.426 3.108
8 8.635 88.751
9 67.684 90.368
10 23.453 74.786
11 72.246 55.084
12 84.142 39.076
13 25.823 88.587
14 29.676 81.359
15 48.918 12.935
16 87.843 11.602
17 15.737 89.601
18 4.896 3.607
19 52.634 16.020
20 59.462 37.825
21 6.277 94.808
22 83.883 91.614
23 7.983 10.600
24 40.763 88.214
25 53.299 3.356
26 18.521 18.869
27 41.985 48.626
28 74.348 24.460
29 7.080 72.220
30 28.186 54.287
31 75.465 6.349
32 21.045 93.438
33 68.653 89.299
34 54.286 62.971
35 8.784 65.106
36 24.586 17.367
37 48.257 74.910
38 5.630 54.739
39 37.586 94.836
40 77.449 77.608
41 89.185 99.527
42 16.939 57.967
43 13.021 5.307
44 73.824 58.294
45 98.634 20.005
46 74.340 87.324
47 58.945 4.989
48 10.184 41.199
49 24.346 66.849
50 12.123 18.200
51 51.808 21.625
52 5.390 39.354
53 17.141 78.878
54 57.199 90.816
55 79.291 46.822
56 11.836 61.187
57 25.476 31.813
58 78.846 24.022
59 25.075 25.604
60 55.949 8.044
61 87.330 91.013
62 2.716 19.954
63 5.198 1.769
64 27.957 19.219
65 43.387 46.761
66 89.979 58.856
67 73.487 58.619
68 38.697 89.521
69 44.791 35.222
70 91.921 33.245
71 51.761 95.710
72 65.750 11.973
73 70.564 12.616
74 55.974 86.942
75 77.863 37.346
76 15.145 95.775
77 6.886 30.596
78 27.960 93.325
79 67.620 38.310
80 77.611 61.240
81 42.347 27.338
82 53.110 18.497
83 61.214 73.223
84 91.493 43.498
85 76.845 68.096
86 30.121 77.509
87 40.859 1.210
88 38.452 63.698
89 21.993 72.266
90 44.638 14.497
91 29.503 15.121
92 88.005 8.740
93 75.910 88.643
94 95.507 13.907
95 20.629 65.526
96 54.159 86.530
97 72.770 58.841
98 3.128 26.416
99 50.147 76.301
100 49.513 62.829
101 25.964 85.349
102 35.252 4.792
103 26.858 56.535
104 52.468 59.881
105 12.693 99.626
106 15.478 83.329
107 31.381 40.541
108 3.122 55.519
109 92.124 47.859
110 28.124 89.657
111 88.193 28.918
112 10.611 23.066
113 59.879 29.906
114 86.715 76.279
115 18.964 82.411
116 64.263 78.474
117 54.326 86.290
118 92.702 84.419
119 78.387 77.537
120 38.028 73.179
121 48.507 4.120
122 7.391 74.606
123 84.480 44.003
124 45.969 35.636
125 81.762 26.904
126 21.511 95.973
127 4.472 24.794
128 80.514 36.118
129 11.156 30.704
130 49.493 96.499
131 84.474 85.174
132 86.898 94.630
133 68.306 38.635
134 54.820 6.949
135 87.704 1.160
136 39.437 13.170
137 59.183 89.268
138 66.119 95.613
139 91.989 27.126
140 29.873 14.462
141 50.293 71.478
142 8.133 13.561
143 58.201 56.530
144 4.014 9.727
145 85.623 72.577
146 74.479 36.982
147 91.276 1.191
148 3.224 81.442
149 51.492 33.374
150 70.245 7.093
151 35.526 91.550
152 92.147 63.853
153 12.119 38.595
154 94.888 48.288
155 72.172 65.295
156 98.333 84.781
157 0.562 39.345
158 9.985 15.447
159 92.900 35.974
160 37.454 28.898
161 72.910 1.593
162 60.864 8.326
163 0.077 29.089
164 70.554 39.868
165 90.133 1.758
166 56.403 12.602
167 57.803 31.970
168 80.571 69.507
169 59.791 96.961
170 75.700 35.899
171 39.298 75.451
172 2.608 79.273
173 44.379 20.243
174 54.486 23.166
175 99.318 92.251
176 75.371 52.912
177 66.606 50.527
178 68.666 76.180
179 36.455 15.178
180 87.220 93.703
181 40.964 86.359
182 76.376 23.868
183 49.310 94.810
184 57.013 18.096
185 2.729 32.401
186 90.070 82.587
187 81.657 73.365
188 90.263 14.606
189 57.732 18.961
190 6.138 87.267
191 24.149 54.638
192 61.157 87.155
193 10.924 87.980
194 5.575 76.145
195 40.166 74.510
196 45.290 28.709
197 16.373 99.322
198 42.568 6.900
199 70.539 56.421
200 9.217 88.911
DEMAND_SECTION
0 0.000
1 9.000
2 4.000
3 1.000
4 8.000
5 1.000
6 7.000
7 9.000
8 5.000
9 8.000
10 2.000
11 9.000
12 1.000
13 1.000
14 4.000
15 1.000
16 6.000
17 7.000
18 10.000
19 5.000
20 5.000
21 2.000
22 2.000
23 5.000
24 9.000
25 8.000
26 2.000
27 10.000
28 7.000
29 6.000
30 1.000
31 6.000
32 9.000
33 1.000
34 9.000
35 10.000
36 8.000
37 9.000
38 4.000
39 2.000
40 3.000
41 4.000
42 3.000
43 8.000
44 9.000
45 8.000
46 2.000
47 9.000
48 8.000
49 3.000
50 7.000
51 7.000
52 8.000
53 2.000
54 5.000
55 5.000
56 10.000
57 4.000
58 5.000
59 5.000
60 8.000
61 3.000
62 9.000
63 5.000
64 9.000
65 7.000
66 4.000
67 5.000
68 2.000
69 10.000
70 5.000
71 5.000
72 10.000
73 4.000
74 4.000
75 6.000
76 5.000
77 7.000
78 3.000
79 2.000
80 4.000
81 8.000
82 4.000
83 6.000
84 2.000
85 5.000
86 8.000
87 4.000
88 6.000
89 3.000
90 2.000
91 2.000
92 2.000
93 4.000
94 5.000
95 8.000
96 1.000
97 9.000
98 2.000
99 7.000
100 4.000
101 2.000
102 7.000
103 5.000
104 5.000
105 2.000
106 6.000
107 6.000
108 6.000
109 10.000
110 1.000
111 2.000
112 2.000
113 7.000
114 3.000
115 4.000
116 5.000
117 8.000
118 6.000
119 5.000
120 4.000
121 6.000
122 3.000
123 7.000
124 7.000
125 4.000
126 5.000
127 6.000
128 1.000
129 4.000
130 1.000
131 8.000
132 6.000
133 6.000
134 3.000
135 7.000
136 5.000
137 4.000
138 1.000
139 1.000
140 9.000
141 7.000
142 5.000
143 2.000
144 7.000
145 3.000
146 7.000
147 2.000
148 3.000
149 5.000
150 5.000
151 3.000
152 6.000
153 5.000
154 10.000
155 2.000
156 3.000
157 1.000
158 4.000
159 8.000
160 1.000
161 9.000
162 8.000
163 4.000
164 8.000
165 8.000
166 2.000
167 5.000
168 2.000
169 6.000
170 1.000
171 9.000
172 4.000
173 6.000
174 4.000
175 7.000
176 10.000
177 10.000
178 10.000
179 2.000
180 7.000
181 8.000
182 1.000
183 4.000
184 6.000
185 2.000
186 3.000
187 7.000
188 10.000
189 7.000
190 10.000
191 1.000
192 3.000
193 3.000
194 10.000
195 10.000
196 5.000
197 3.000
198 1.000
199 7.000
200 10.000
PRIORITY_SECTION
0 0.000
1 1.000
2 0.000
3 0.000
4 1.000
5 0.000
6 0.000
7 5.000
8 5.000
9 0.000
10 0.000
11 5.000
12 0.000
13 1.000
14 1.000
15 0.000
16 5.000
17 1.000
18 0.000
19 0.000
20 0.000
21 0.000
22 0.000
23 0.000
24 2.000
25 2.000
26 0.000
27 0.000
28 0.000
29 0.000
30 0.000
31 1.000
32 5.000
33 1.000
34 2.000
35 2.000
36 2.000
37 0.000
38 0.000
39 2.000
40 5.000
41 5.000
42 1.000
43 0.000
44 5.000
45 1.000
46 0.000
47 0.000
48 2.000
49 2.000
50 1.000
51 5.000
52 2.000
53 0.000
54 2.000
55 0.000
56 2.000
57 2.000
58 1.000
59 1.000
60 0.000
61 5.000
62 0.000
63 0.000
64 5.000
65 0.000
66 2.000
67 5.000
68 0.000
69 5.000
70 0.000
71 0.000
72 0.000
73 0.000
74 1.000
75 0.000
76 5.000
77 1.000
78 0.000
79 0.000
80 0.000
81 5.000
82 0.000
83 0.000
84 0.000
85 0.000
86 5.000
87 5.000
88 0.000
89 5.000
90 0.000
91 2.000
92 5.000
93 0.000
94 0.000
95 2.000
96 2.000
97 1.000
98 5.000
99 0.000
100 0.000
101 1.000
102 0.000
103 5.000
104 5.000
105 5.000
106 5.000
107 0.000
108 0.000
109 0.000
110 0.000
111 0.000
112 0.000
113 0.000
114 0.000
115 5.000
116 0.000
117 0.000
118 0.000
119 0.000
120 1.000
121 0.000
122 0.000
123 0.000
124 2.000
125 2.000
126 0.000
127 5.000
128 0.000
129 0.000
130 0.000
131 2.000
132 2.000
133 2.000
134 1.000
135 1.000
136 0.000
137 0.000
138 5.000
139 0.000
140 5.000
141 0.000
142 1.000
143 0.000
144 0.000
145 5.000
146 2.000
147 0.000
148 0.000
149 0.000
150 0.000
151 0.000
152 2.000
153 0.000
154 0.000
155 0.000
156 0.000
157 0.000
158 1.000
159 2.000
160 1.000
161 1.000
162 0.000
163 0.000
164 0.000
165 1.000
166 1.000
167 1.000
168 5.000
169 2.000
170 1.000
171 2.000
172 0.000
173 0.000
174 0.000
175 1.000
176 0.000
177 0.000
178 0.000
179 1.000
180 1.000
181 0.000
182 5.000
183 0.000
184 0.000
185 0.000
186 0.000
187 5.000
188 0.000
189 0.000
190 0.000
191 0.000
192 0.000
193 1.000
194 1.000
195 0.000
196 5.000
197 0.000
198 2.000
199 0.000
200 0.000
VEHICLE_SECTION
1 20.980 20.000 1.000
2 21.250 35.000 1.200
3 21.520 50.000 1.400
4 21.790 65.000 1.600
5 22.060 80.000 1.800
6 22.320 95.000 2.000
7 22.590 110.000 2.200
8 22.860 125.000 2.400
9 23.130 140.000 2.600
10 23.400 155.000 2.800
11 23.670 170.000 3.000
12 23.940 185.000 3.200
13 24.210 200.000 3.400
14 24.480 215.000 3.600
15 24.750 230.000 3.800
16 25.010 245.000 4.000
17 25.280 260.000 4.200
18 25.550 275.000 4.400
19 25.820 290.000 4.600
20 26.090 305.000 4.800
21 26.360 320.000 5.000
22 26.630 335.000 5.200
23 26.900 350.000 5.400
24 27.170 365.000 5.600
25 27.440 380.000 5.800
26 27.700 395.000 6.000
27 27.970 410.000 6.200
28 28.240 425.000 6.400
29 28.510 440.000 6.600
30 28.780 455.000 6.800
31 29.050 470.000 7.000
32 29.320 485.000 7.200
33 29.590 500.000 7.400
34 29.860 515.000 7.600
35 30.130 530.000 7.800
36 30.390 545.000 8.000
37 30.660 560.000 8.200
38 30.930 575.000 8.400
39 31.200 590.000 8.600
40 581.740 605.000 8.800
EOF
