NAME: hfvrp_n150_m30_s04
CUSTOMERS: 150
VEHICLES: 30
NODE_COORD_SECTION
0 50.000 50.000
1 33.847 46.805
2 22.853 52.320
3 84.094 9.308
4 65.392 61.617
5 70.178 67.638
6 30.386 93.204
7 89.942 23.383
8 11.756 45.945
9 38.909 90.305
10 19.156 46.566
11 81.605 93.626
12 29.835 9.936
13 39.941 85.717
14 2.798 9.154
15 12.511 86.875
16 55.817 20.571
17 48.230 33.373
18 61.651 24.348
19 57.601 26.578
20 87.967 77.609
21 8.548 89.736
22 90.458 55.339
23 96.379 54.157
24 92.553 78.689
25 55.031 99.946
26 13.865 8.843
27 23.892 93.080
28 32.118 37.651
29 63.778 87.021
30 42.770 7.587
31 50.203 28.874
32 64.176 43.839
33 11.876 27.693
34 79.545 1.283
35 14.711 79.086
36 88.407 84.720
37 40.229 92.018
38 15.540 69.334
39 63.434 59.068
40 51.432 72.457
41 20.863 44.497
42 27.117 91.057
43 77.335 94.919
44 60.543 5.471
45 12.107 73.275
46 45.718 3.204
47 13.292 59.857
48 45.904 53.566
49 54.003 3.434
50 8.074 42.824
51 32.790 82.019
52 7.077 45.668
53 41.627 79.721
54 17.453 25.355
55 35.850 88.031
56 31.363 75.859
57 84.248 93.935
58 53.576 67.619
59 84.012 86.656
60 68.331 82.594
61 12.594 21.083
62 24.847 62.134
63 12.241 95.040
64 33.485 12.150
65 11.040 56.012
66 32.984 49.975
67 48.760 50.272
68 17.744 9.603
69 61.678 70.281
70 17.902 2.555
71 64.329 64.264
72 47.126 58.771
73 65.641 23.552
74 78.223 49.523
75 33.712 80.461
76 34.977 56.938
77 81.405 74.747
78 62.695 42.140
79 28.887 57.190
80 95.860 57.396
81 74.686 71.316
82 41.863 41.590
83 11.649 97.849
84 99.448 39.884
85 42.261 12.680
86 27.945 15.125
87 8.795 55.086
88 57.660 58.159
89 99.911 22.760
90 21.846 66.085
91 94.296 34.747
92 67.349 20.470
93 92.918 70.399
94 39.186 6.627
95 5.754 65.455
96 99.392 3.634
97 12.241 0.930
98 93.919 81.067
99 90.944 98.336
100 31.423 33.285
101 22.252 90.951
102 77.512 37.476
103 92.042 41.123
104 66.633 2.764
105 90.364 24.487
106 25.575 39.595
107 95.126 59.292
108 80.680 34.052
109 95.163 13.559
110 36.125 88.200
111 9.331 13.608
112 23.460 46.917
113 15.662 32.987
114 26.720 81.755
115 40.854 27.321
116 36.570 46.491
117 1.491 44.217
118 21.294 39.392
119 2.746 80.802
120 94.069 60.718
121 19.291 80.866
122 61.098 70.241
123 7.420 39.172
124 75.484 84.953
125 16.927 72.327
126 97.949 14.759
127 1.522 58.307
128 73.839 1.410
129 34.442 78.310
130 70.187 41.282
131 79.090 60.550
132 20.912 29.296
133 67.283 58.274
134 29.633 38.524
135 24.729 34.132
136 35.369 65.728
137 43.764 14.146
138 70.672 13.257
139 85.284 90.186
140 54.881 47.861
141 40.401 38.184
142 29.346 6.186
143 32.933 26.674
144 98.072 4.030
145 61.344 25.986
146 89.872 85.783
147 18.512 0.362
148 67.718 92.084
149 42.913 32.375
150 33.746 95.362
DEMAND_SECTION
0 0.000
1 5.000
2 10.000
3 5.000
4 4.000
5 8.000
6 8.000
7 8.000
8 3.000
9 4.000
10 9.000
11 1.000
12 2.000
13 6.000
14 9.000
15 3.000
16 7.000
17 3.000
18 7.000
19 6.000
20 8.000
21 7.000
22 10.000
23 6.000
24 9.000
25 4.000
26 1.000
27 8.000
28 2.000
29 8.000
30 8.000
31 6.000
32 3.000
33 1.000
34 2.000
35 7.000
36 9.000
37 7.000
38 8.000
39 4.000
40 4.000
41 9.000
42 1.000
43 5.000
44 2.000
45 1.000
46 1.000
47 9.000
48 8.000
49 2.000
50 1.000
51 2.000
52 4.000
53 1.000
54 4.000
55 10.000
56 10.000
57 5.000
58 4.000
59 8.000
60 4.000
61 9.000
62 4.000
63 8.000
64 1.000
65 1.000
66 6.000
67 10.000
68 6.000
69 3.000
70 7.000
71 9.000
72 5.000
73 8.000
74 8.000
75 9.000
76 5.000
77 9.000
78 6.000
79 5.000
80 1.000
81 10.000
82 6.000
83 10.000
84 5.000
85 7.000
86 7.000
87 6.000
88 7.000
89 8.000
90 9.000
91 9.000
92 8.000
93 4.000
94 1.000
95 10.000
96 3.000
97 2.000
98 1.000
99 3.000
100 2.000
101 5.000
102 8.000
103 3.000
104 1.000
105 10.000
106 3.000
107 2.000
108 4.000
109 7.000
110 10.000
111 5.000
112 9.000
113 4.000
114 8.000
115 2.000
116 9.000
117 3.000
118 1.000
119 5.000
120 5.000
121 7.000
122 3.000
123 3.000
124 3.000
125 7.000
126 8.000
127 7.000
128 3.000
129 8.000
130 2.000
131 7.000
132 3.000
133 10.000
134 9.000
135 4.000
136 7.000
137 1.000
138 2.000
139 4.000
140 3.000
141 8.000
142 7.000
143 6.000
144 7.000
145 9.000
146 2.000
147 5.000
148 2.000
149 3.000
150 6.000
PRIORITY_SECTION
0 0.000
1 2.000
2 5.000
3 0.000
4 5.000
5 0.000
6 0.000
7 0.000
8 1.000
9 0.000
10 2.000
11 0.000
12 5.000
13 5.000
14 2.000
15 0.000
16 0.000
17 2.000
18 0.000
19 0.000
20 5.000
21 2.000
22 0.000
23 5.000
24 0.000
25 2.000
26 5.000
27 0.000
28 0.000
29 5.000
30 1.000
31 0.000
32 0.000
33 0.000
34 2.000
35 0.000
36 0.000
37 2.000
38 0.000
39 2.000
40 2.000
41 0.000
42 2.000
43 1.000
44 0.000
45 2.000
46 1.000
47 0.000
48 0.000
49 2.000
50 5.000
51 0.000
52 1.000
53 0.000
54 0.000
55 0.000
56 0.000
57 0.000
58 0.000
59 0.000
60 5.000
61 0.000
62 2.000
63 0.000
64 0.000
65 2.000
66 5.000
67 1.000
68 1.000
69 5.000
70 0.000
71 5.000
72 2.000
73 5.000
74 1.000
75 0.000
76 5.000
77 2.000
78 0.000
79 5.000
80 0.000
81 5.000
82 5.000
83 0.000
84 0.000
85 2.000
86 0.000
87 1.000
88 5.000
89 0.000
90 0.000
91 1.000
92 0.000
93 0.000
94 1.000
95 1.000
96 0.000
97 5.000
98 0.000
99 5.000
100 0.000
101 1.000
102 1.000
103 0.000
104 0.000
105 5.000
106 5.000
107 2.000
108 0.000
109 1.000
110 5.000
111 2.000
112 0.000
113 5.000
114 2.000
115 5.000
116 2.000
117 1.000
118 5.000
119 0.000
120 1.000
121 1.000
122 1.000
123 1.000
124 0.000
125 5.000
126 0.000
127 0.000
128 0.000
129 0.000
130 1.000
131 0.000
132 5.000
133 2.000
134 1.000
135 0.000
136 1.000
137 0.000
138 0.000
139 0.000
140 2.000
141 1.000
142 0.000
143 0.000
144 0.000
145 0.000
146 5.000
147 0.000
148 5.000
149 0.000
150 2.000
VEHICLE_SECTION
1 21.840 20.000 1.000
2 22.220 35.000 1.200
3 22.590 50.000 1.400
4 22.970 65.000 1.600
5 23.350 80.000 1.800
6 23.720 95.000 2.000
7 24.100 110.000 2.200
8 24.480 125.000 2.400
9 24.850 140.000 2.600
10 25.230 155.000 2.800
11 25.610 170.000 3.000
12 25.980 185.000 3.200
13 26.360 200.000 3.400
14 26.740 215.000 3.600
15 27.110 230.000 3.800
16 27.490 245.000 4.000
17 27.860 260.000 4.200
18 28.240 275.000 4.400
19 28.620 290.000 4.600
20 28.990 305.000 4.800
21 29.370 320.000 5.000
22 29.750 335.000 5.200
23 30.120 350.000 5.400
24 30.500 365.000 5.600
25 30.880 380.000 5.800
26 31.250 395.000 6.000
27 31.630 410.000 6.200
28 32.010 425.000 6.400
29 32.380 440.000 6.600
30 504.640 455.000 6.800
EOF
