NAME: hfvrp_n200_m40_s01
CUSTOMERS: 200
VEHICLES: 40
NODE_COORD_SECTION
0 50.000 50.000
1 40.437 45.403
2 6.998 8.543
3 6.801 59.536
4 55.210 55.948
5 87.965 48.998
6 22.893 55.547
7 28.748 37.244
8 15.794 42.787
9 25.316 17.500
10 26.346 46.268
11 55.168 69.702
12 88.065 77.624
13 45.208 90.028
14 62.436 58.385
15 52.883 52.717
16 44.843 91.560
17 91.493 77.998
18 45.090 90.687
19 87.175 43.539
20 4.094 99.380
21 52.062 15.163
22 27.274 59.843
23 92.922 78.213
24 97.728 37.382
25 17.290 12.026
26 15.685 25.348
27 93.748 40.844
28 20.987 97.637
29 57.084 70.649
30 47.733 34.592
31 47.759 70.804
32 55.986 43.295
33 94.738 14.748
34 13.941 48.681
35 35.514 10.789
36 63.011 12.869
37 37.153 80.668
38 69.898 27.809
39 71.988 11.712
40 86.341 48.805
41 34.217 10.872
42 42.470 48.800
43 6.418 93.729
44 25.091 56.149
45 70.721 16.597
46 96.158 98.162
47 93.253 5.135
48 39.427 26.533
49 41.759 34.432
50 64.628 1.603
51 72.414 54.877
52 98.027 95.686
53 97.320 32.279
54 80.258 48.819
55 87.784 16.605
56 47.791 3.164
57 32.049 76.391
58 68.642 81.955
59 2.776 12.844
60 48.606 11.756
61 39.319 57.039
62 75.355 19.123
63 44.186 51.494
64 82.628 74.509
65 60.783 29.240
66 80.930 88.638
67 73.155 82.554
68 74.292 13.309
69 75.406 98.200
70 77.652 12.348
71 90.872 55.796
72 53.454 89.835
73 98.102 97.376
74 39.345 40.549
75 63.177 30.910
76 11.372 66.719
77 9.816 83.727
78 88.744 25.461
79 0.548 84.177
80 1.295 47.213
81 20.862 30.008
82 18.440 25.472
83 36.575 24.298
84 30.329 60.405
85 16.860 21.312
86 2.330 29.127
87 13.737 43.257
88 23.160 21.226
89 43.485 98.765
90 77.628 28.008
91 44.984 79.642
92 62.138 46.757
93 58.505 8.521
94 16.412 21.056
95 34.127 28.639
96 21.977 55.376
97 83.198 73.041
98 3.736 17.972
99 10.142 12.007
100 62.759 49.323
101 96.033 8.880
102 97.345 34.460
103 56.575 67.139
104 22.511 55.125
105 84.104 73.409
106 42.843 7.237
107 96.683 81.734
108 75.998 80.977
109 73.617 79.972
110 4.412 31.776
111 17.097 82.186
112 13.075 1.680
113 7.254 33.779
114 59.680 57.784
115 8.142 88.476
116 73.632 88.406
117 1.612 88.095
118 88.412 76.938
119 99.312 97.817
120 53.475 90.727
121 99.414 77.596
122 47.830 89.978
123 95.250 64.527
124 87.371 9.919
125 2.938 41.377
126 40.693 69.735
127 9.365 33.041
128 34.242 51.850
129 4.676 64.377
130 59.187 94.631
131 82.700 80.999
132 36.359 34.019
133 62.256 82.081
134 62.737 34.941
135 0.634 31.287
136 91.714 14.258
137 75.525 64.465
138 66.150 9.704
139 95.426 68.084
140 28.325 73.528
141 53.569 7.180
142 39.102 7.833
143 84.698 60.020
144 22.904 60.276
145 5.471 43.262
146 12.834 71.501
147 63.175 58.246
148 73.728 33.110
149 59.435 72.830
150 60.461 46.305
151 20.928 10.252
152 4.708 86.605
153 94.310 69.138
154 5.958 96.775
155 85.522 85.919
156 33.179 15.807
157 35.050 5.913
158 97.990 31.866
159 28.031 54.973
160 64.414 78.544
161 1.607 28.671
162 2.505 7.001
163 78.295 31.587
164 11.801 33.311
165 61.769 19.193
166 33.212 77.186
167 70.166 68.414
168 18.658 24.423
169 48.654 60.364
170 48.317 79.281
171 50.835 14.558
172 54.112 43.493
173 24.811 2.888
174 96.664 67.516
175 75.616 69.398
176 2.095 23.532
177 35.174 62.262
178 18.411 50.363
179 35.915 32.408
180 83.042 23.127
181 21.796 99.882
182 90.380 16.236
183 15.924 54.619
184 65.004 35.127
185 3.602 91.690
186 10.175 72.375
187 48.291 33.531
188 62.497 83.489
189 29.828 56.486
190 78.942 42.926
191 67.533 9.470
192 2.980 55.585
193 90.370 32.523
194 31.500 83.746
195 66.487 18.280
196 50.836 40.854
197 90.692 95.328
198 61.475 39.025
199 7.735 85.687
200 77.736 1.821
DEMAND_SECTION
0 0.000
1 5.000
2 6.000
3 1.000
4 8.000
5 8.000
6 2.000
7 10.000
8 4.000
9 9.000
10 9.000
11 10.000
12 10.000
13 4.000
14 8.000
15 1.000
16 7.000
17 6.000
18 1.000
19 7.000
20 5.000
21 5.000
22 4.000
23 2.000
24 7.000
25 7.000
26 9.000
27 9.000
28 1.000
29 7.000
30 2.000
31 5.000
32 2.000
33 7.000
34 1.000
35 2.000
36 8.000
37 6.000
38 6.000
39 4.000
40 5.000
41 5.000
42 7.000
43 3.000
44 4.000
45 10.000
46 5.000
47 2.000
48 3.000
49 6.000
50 4.000
51 8.000
52 4.000
53 10.000
54 5.000
55 10.000
56 7.000
57 4.000
58 3.000
59 1.000
60 9.000
61 5.000
62 6.000
63 6.000
64 7.000
65 6.000
66 2.000
67 10.000
68 10.000
69 10.000
70 9.000
71 3.000
72 2.000
73 5.000
74 7.000
75 2.000
76 6.000
77 7.000
78 2.000
79 6.000
80 3.000
81 10.000
82 4.000
83 5.000
84 4.000
85 9.000
86 3.000
87 9.000
88 9.000
89 8.000
90 6.000
91 3.000
92 10.000
93 4.000
94 3.000
95 5.000
96 4.000
97 5.000
98 5.000
99 6.000
100 7.000
101 9.000
102 9.000
103 2.000
104 4.000
105 1.000
106 2.000
107 2.000
108 4.000
109 6.000
110 10.000
111 7.000
112 2.000
113 1.000
114 7.000
115 10.000
116 6.000
117 4.000
118 6.000
119 4.000
120 1.000
121 7.000
122 4.000
123 1.000
124 5.000
125 6.000
126 10.000
127 8.000
128 3.000
129 7.000
130 8.000
131 5.000
132 4.000
133 6.000
134 3.000
135 8.000
136 6.000
137 5.000
138 1.000
139 2.000
140 1.000
141 6.000
142 8.000
143 6.000
144 2.000
145 7.000
146 6.000
147 2.000
148 9.000
149 4.000
150 10.000
151 6.000
152 7.000
153 9.000
154 1.000
155 3.000
156 9.000
157 1.000
158 6.000
159 7.000
160 4.000
161 9.000
162 2.000
163 7.000
164 7.000
165 10.000
166 3.000
167 7.000
168 8.000
169 9.000
170 8.000
171 1.000
172 5.000
173 3.000
174 9.000
175 8.000
176 10.000
177 6.000
178 8.000
179 9.000
180 5.000
181 3.000
182 1.000
183 4.000
184 3.000
185 10.000
186 5.000
187 10.000
188 1.000
189 3.000
190 9.000
191 3.000
192 1.000
193 6.000
194 3.000
195 7.000
196 4.000
197 2.000
198 2.000
199 3.000
200 7.000
PRIORITY_SECTION
0 0.000
1 0.000
2 2.000
3 1.000
4 5.000
5 1.000
6 0.000
7 2.000
8 0.000
9 0.000
10 1.000
11 2.000
12 0.000
13 0.000
14 0.000
15 0.000
16 0.000
17 5.000
18 1.000
19 0.000
20 2.000
21 0.000
22 0.000
23 0.000
24 5.000
25 2.000
26 2.000
27 0.000
28 1.000
29 5.000
30 2.000
31 0.000
32 0.000
33 1.000
34 1.000
35 0.000
36 2.000
37 2.000
38 2.000
39 0.000
40 0.000
41 0.000
42 1.000
43 5.000
44 0.000
45 2.000
46 2.000
47 0.000
48 0.000
49 0.000
50 0.000
51 0.000
52 0.000
53 5.000
54 0.000
55 0.000
56 0.000
57 1.000
58 2.000
59 0.000
60 5.000
61 0.000
62 5.000
63 1.000
64 0.000
65 1.000
66 0.000
67 0.000
68 0.000
69 0.000
70 0.000
71 0.000
72 0.000
73 0.000
74 0.000
75 2.000
76 0.000
77 2.000
78 5.000
79 1.000
80 0.000
81 5.000
82 0.000
83 5.000
84 0.000
85 0.000
86 0.000
87 2.000
88 5.000
89 0.000
90 0.000
91 1.000
92 0.000
93 5.000
94 2.000
95 0.000
96 0.000
97 1.000
98 0.000
99 2.000
100 0.000
101 0.000
102 1.000
103 0.000
104 2.000
105 0.000
106 0.000
107 0.000
108 2.000
109 0.000
110 0.000
111 2.000
112 0.000
113 1.000
114 1.000
115 0.000
116 0.000
117 1.000
118 0.000
119 2.000
120 5.000
121 0.000
122 1.000
123 1.000
124 1.000
125 5.000
126 5.000
127 0.000
128 5.000
129 0.000
130 0.000
131 5.000
132 2.000
133 2.000
134 1.000
135 0.000
136 0.000
137 0.000
138 0.000
139 2.000
140 0.000
141 5.000
142 2.000
143 1.000
144 1.000
145 5.000
146 2.000
147 2.000
148 0.000
149 0.000
150 0.000
151 2.000
152 5.000
153 1.000
154 1.000
155 0.000
156 1.000
157 5.000
158 0.000
159 0.000
160 0.000
161 1.000
162 0.000
163 0.000
164 5.000
165 0.000
166 0.000
167 2.000
168 1.000
169 0.000
170 1.000
171 0.000
172 1.000
173 0.000
174 2.000
175 0.000
176 5.000
177 2.000
178 2.000
179 5.000
180 2.000
181 5.000
182 0.000
183 1.000
184 5.000
185 0.000
186 0.000
187 2.000
188 0.000
189 0.000
190 5.000
191 1.000
192 0.000
193 0.000
194 0.000
195 1.000
196 2.000
197 2.000
198 5.000
199 0.000
200 0.000
VEHICLE_SECTION
1 21.880 20.000 1.000
2 22.160 35.000 1.200
3 22.440 50.000 1.400
4 22.720 65.000 1.600
5 23.000 80.000 1.800
6 23.280 95.000 2.000
7 23.560 110.000 2.200
8 23.840 125.000 2.400
9 24.120 140.000 2.600
10 24.400 155.000 2.800
11 24.690 170.000 3.000
12 24.970 185.000 3.200
13 25.250 200.000 3.400
14 25.530 215.000 3.600
15 25.810 230.000 3.800
16 26.090 245.000 4.000
17 26.370 260.000 4.200
18 26.650 275.000 4.400
19 26.930 290.000 4.600
20 27.210 305.000 4.800
21 27.490 320.000 5.000
22 27.770 335.000 5.200
23 28.050 350.000 5.400
24 28.330 365.000 5.600
25 28.610 380.000 5.800
26 28.890 395.000 6.000
27 29.170 410.000 6.200
28 29.450 425.000 6.400
29 29.730 440.000 6.600
30 30.010 455.000 6.800
31 30.300 470.000 7.000
32 30.580 485.000 7.200
33 30.860 500.000 7.400
34 31.140 515.000 7.600
35 31.420 530.000 7.800
36 31.700 545.000 8.000
37 31.980 560.000 8.200
38 32.260 575.000 8.400
39 32.540 590.000 8.600
40 606.760 605.000 8.800
EOF
