NAME: hfvrp_n015_m03_s03
CUSTOMERS: 15
VEHICLES: 3
NODE_COORD_SECTION
0 50.000 50.000
1 10.747 17.258
2 11.562 17.944
3 51.384 22.002
4 32.928 0.984
5 48.887 46.635
6 23.712 34.663
7 65.066 43.358
8 27.445 31.417
9 3.326 96.432
10 17.512 18.872
11 82.096 60.046
12 26.743 14.484
13 47.159 28.101
14 48.627 2.882
15 22.034 51.749
DEMAND_SECTION
0 0.000
1 9.000
2 9.000
3 2.000
4 6.000
5 7.000
6 9.000
7 9.000
8 4.000
9 1.000
10 10.000
11 4.000
12 4.000
13 9.000
14 6.000
15 6.000
PRIORITY_SECTION
0 0.000
1 0.000
2 0.000
3 0.000
4 0.000
5 0.000
6 0.000
7 0.000
8 0.000
9 1.000
10 2.000
11 0.000
12 5.000
13 2.000
14 0.000
15 2.000
VEHICLE_SECTION
1 25.330 20.000 1.000
2 31.670 35.000 1.200
3 94.550 50.000 1.400
EOF
