NAME: hfvrp_n020_m04_s03
CUSTOMERS: 20
VEHICLES: 4
NODE_COORD_SECTION
0 50.000 50.000
1 87.019 82.575
2 1.203 16.265
3 15.647 75.995
4 47.481 53.436
5 16.151 73.071
6 43.780 7.391
7 15.249 54.281
8 73.665 41.925
9 24.757 93.218
10 16.450 13.831
11 14.090 52.918
12 18.658 38.281
13 62.929 61.449
14 66.214 9.024
15 50.435 76.599
16 15.490 86.484
17 6.440 33.519
18 44.773 92.104
19 73.147 6.580
20 53.619 18.591
DEMAND_SECTION
0 0.000
1 8.000
2 9.000
3 10.000
4 8.000
5 5.000
6 8.000
7 1.000
8 3.000
9 2.000
10 10.000
11 6.000
12 5.000
13 9.000
14 9.000
15 4.000
16 7.000
17 3.000
18 4.000
19 1.000
20 3.000
PRIORITY_SECTION
0 0.000
1 2.000
2 0.000
3 5.000
4 2.000
5 0.000
6 0.000
7 5.000
8 2.000
9 0.000
10 0.000
11 0.000
12 0.000
13 2.000
14 1.000
15 0.000
16 2.000
17 0.000
18 2.000
19 5.000
20 0.000
VEHICLE_SECTION
1 23.000 20.000 1.000
2 26.830 35.000 1.200
3 30.670 50.000 1.400
4 103.020 65.000 1.600
EOF
