NAME: hfvrp_n050_m10_s02
CUSTOMERS: 50
VEHICLES: 10
NODE_COORD_SECTION
0 50.000 50.000
1 30.288 8.628
2 26.187 3.660
3 51.848 57.041
4 15.184 69.658
5 60.539 83.976
6 11.491 5.034
7 5.051 84.039
8 20.425 54.853
9 8.266 72.965
10 42.486 8.713
11 23.358 37.356
12 25.320 28.658
13 10.620 49.011
14 46.210 54.899
15 65.310 42.918
16 43.617 51.921
17 91.327 55.694
18 99.107 13.976
19 22.506 70.496
20 94.277 28.565
21 15.892 79.238
22 55.340 20.113
23 82.980 57.489
24 51.779 93.088
25 4.112 65.897
26 64.940 18.340
27 83.958 33.174
28 18.664 8.137
29 26.126 79.308
30 61.384 12.645
31 34.785 97.360
32 31.418 91.305
33 26.943 61.338
34 87.440 46.563
35 60.273 44.950
36 26.026 41.311
37 44.845 94.623
38 11.684 25.081
39 87.223 86.096
40 22.564 47.375
41 15.321 3.937
42 72.061 12.265
43 70.037 19.080
44 12.379 64.459
45 69.820 22.140
46 62.698 0.318
47 59.750 3.193
48 76.181 96.208
49 39.596 81.995
50 4.050 34.804
DEMAND_SECTION
0 0.000
1 4.000
2 1.000
3 1.000
4 10.000
5 6.000
6 9.000
7 8.000
8 10.000
9 6.000
10 9.000
11 3.000
12 10.000
13 1.000
14 6.000
15 8.000
16 6.000
17 6.000
18 3.000
19 7.000
20 3.000
21 4.000
22 1.000
23 3.000
24 3.000
25 7.000
26 2.000
27 10.000
28 3.000
29 4.000
30 6.000
31 10.000
32 6.000
33 8.000
34 9.000
35 7.000
36 3.000
37 8.000
38 9.000
39 10.000
40 5.000
41 9.000
42 8.000
43 4.000
44 1.000
45 7.000
46 1.000
47 7.000
48 1.000
49 4.000
50 3.000
PRIORITY_SECTION
0 0.000
1 5.000
2 5.000
3 2.000
4 5.000
5 2.000
6 0.000
7 1.000
8 0.000
9 1.000
10 0.000
11 0.000
12 0.000
13 2.000
14 0.000
15 0.000
16 1.000
17 0.000
18 5.000
19 0.000
20 0.000
21 5.000
22 5.000
23 2.000
24 0.000
25 1.000
26 0.000
27 5.000
28 0.000
29 0.000
30 0.000
31 2.000
32 0.000
33 1.000
34 5.000
35 5.000
36 2.000
37 1.000
38 0.000
39 1.000
40 5.000
41 1.000
42 5.000
43 5.000
44 0.000
45 0.000
46 5.000
47 0.000
48 0.000
49 2.000
50 5.000
VEHICLE_SECTION
1 22.400 20.000 1.000
2 23.640 35.000 1.200
3 24.890 50.000 1.400
4 26.130 65.000 1.600
5 27.380 80.000 1.800
6 28.620 95.000 2.000
7 29.870 110.000 2.200
8 31.110 125.000 2.400
9 32.360 140.000 2.600
10 208.020 155.000 2.800
EOF
