NAME: hfvrp_n010_m03_s04
CUSTOMERS: 10
VEHICLES: 3
NODE_COORD_SECTION
0 50.000 50.000
1 14.148 56.856
2 77.493 26.240
3 59.283 19.689
4 99.884 76.804
5 2.827 72.289
6 68.466 4.446
7 13.267 57.841
8 49.952 28.865
9 47.167 61.964
10 49.828 1.700
DEMAND_SECTION
0 0.000
1 9.000
2 3.000
3 7.000
4 6.000
5 9.000
6 2.000
7 10.000
8 5.000
9 2.000
10 8.000
PRIORITY_SECTION
0 0.000
1 0.000
2 0.000
3 5.000
4 2.000
5 1.000
6 0.000
7 0.000
8 0.000
9 1.000
10 1.000
VEHICLE_SECTION
1 16.270 20.000 1.000
2 20.330 35.000 1.200
3 60.720 50.000 1.400
EOF
