NAME: hfvrp_n050_m10_s05
CUSTOMERS: 50
VEHICLES: 10
NODE_COORD_SECTION
0 50.000 50.000
1 34.735 37.152
2 82.622 95.437
3 35.446 46.244
4 95.051 7.663
5 34.763 22.092
6 67.457 99.822
7 94.097 78.741
8 54.150 62.403
9 78.140 11.320
10 41.180 96.461
11 49.456 1.144
12 1.941 76.928
13 60.511 90.830
14 58.968 24.469
15 79.681 5.896
16 43.449 93.036
17 10.764 9.553
18 44.246 84.891
19 11.973 30.729
20 21.809 9.815
21 66.816 53.636
22 58.186 93.478
23 82.111 59.799
24 25.022 71.713
25 29.291 99.687
26 61.485 31.427
27 10.967 67.640
28 86.607 62.529
29 46.866 97.989
30 70.888 52.540
31 96.858 55.668
32 52.960 5.746
33 14.524 41.310
34 95.314 61.667
35 41.683 19.146
36 92.119 79.321
37 45.085 44.767
38 22.901 68.141
39 30.739 11.365
40 79.164 42.737
41 88.456 32.052
42 57.703 38.443
43 75.470 10.831
44 79.774 40.376
45 65.456 69.733
46 34.894 97.589
47 69.409 43.813
48 75.418 82.065
49 37.840 76.688
50 97.666 1.162
DEMAND_SECTION
0 0.000
1 8.000
2 4.000
3 5.000
4 7.000
5 8.000
6 5.000
7 7.000
8 2.000
9 8.000
10 6.000
11 5.000
12 5.000
13 1.000
14 9.000
15 7.000
16 2.000
17 8.000
18 3.000
19 1.000
20 1.000
21 4.000
22 8.000
23 4.000
24 1.000
25 4.000
26 4.000
27 10.000
28 7.000
29 8.000
30 6.000
31 9.000
32 3.000
33 9.000
34 9.000
35 6.000
36 9.000
37 7.000
38 4.000
39 7.000
40 7.000
41 4.000
42 6.000
43 4.000
44 10.000
45 2.000
46 10.000
47 2.000
48 6.000
49 8.000
50 9.000
PRIORITY_SECTION
0 0.000
1 5.000
2 5.000
3 5.000
4 0.000
5 0.000
6 0.000
7 0.000
8 0.000
9 0.000
10 5.000
11 0.000
12 0.000
13 5.000
14 0.000
15 5.000
16 1.000
17 2.000
18 0.000
19 1.000
20 0.000
21 2.000
22 2.000
23 1.000
24 1.000
25 0.000
26 5.000
27 0.000
28 0.000
29 5.000
30 1.000
31 0.000
32 0.000
33 1.000
34 1.000
35 2.000
36 1.000
37 1.000
38 5.000
39 0.000
40 2.000
41 1.000
42 1.000
43 0.000
44 0.000
45 2.000
46 0.000
47 0.000
48 0.000
49 5.000
50 1.000
VEHICLE_SECTION
1 23.120 20.000 1.000
2 24.400 35.000 1.200
3 25.690 50.000 1.400
4 26.970 65.000 1.600
5 28.260 80.000 1.800
6 29.540 95.000 2.000
7 30.830 110.000 2.200
8 32.110 125.000 2.400
9 33.400 140.000 2.600
10 214.730 155.000 2.800
EOF
