NAME: hfvrp_n100_m20_s03
CUSTOMERS: 100
VEHICLES: 20
NODE_COORD_SECTION
0 50.000 50.000
1 99.326 40.593
2 63.455 61.017
3 92.917 61.324
4 30.854 54.503
5 95.651 22.628
6 77.093 61.362
7 43.782 85.780
8 78.710 75.540
9 90.048 90.419
10 24.148 3.238
11 10.767 90.774
12 59.656 58.542
13 14.569 15.998
14 84.451 68.854
15 22.794 24.916
16 26.348 79.496
17 52.387 21.442
18 93.677 0.196
19 39.392 82.059
20 88.803 32.532
21 69.544 79.557
22 88.995 3.627
23 43.108 72.799
24 79.246 47.792
25 65.366 70.702
26 80.414 90.319
27 76.086 59.806
28 21.088 12.271
29 96.048 19.456
30 40.751 57.364
31 76.300 64.948
32 43.540 20.901
33 77.030 34.024
34 72.194 55.800
35 80.241 12.562
36 44.368 71.123
37 70.093 13.041
38 94.804 3.852
39 75.666 22.950
40 56.355 71.872
41 17.812 22.786
42 28.137 44.204
43 32.778 55.399
44 64.078 58.496
45 35.219 82.489
46 23.647 38.751
47 97.854 26.451
48 72.663 12.436
49 40.612 1.491
50 66.922 13.204
51 21.556 9.576
52 90.288 72.962
53 17.831 61.456
54 37.149 7.791
55 68.129 11.540
56 37.620 12.644
57 43.751 37.934
58 56.934 23.260
59 23.823 36.052
60 31.932 74.101
61 87.353 70.381
62 29.503 80.726
63 9.394 29.762
64 17.698 2.432
65 13.841 73.740
66 4.831 92.363
67 75.979 89.948
68 63.386 20.820
69 73.033 74.099
70 18.870 90.013
71 64.041 97.349
72 43.038 78.300
73 15.051 49.890
74 12.564 52.515
75 71.868 31.479
76 10.499 31.577
77 98.870 90.902
78 83.057 51.330
79 87.331 73.118
80 40.615 93.892
81 25.590 83.273
82 32.333 39.147
83 70.033 74.889
84 94.869 60.755
85 13.551 34.433
86 18.779 4.862
87 95.676 21.632
88 81.191 19.507
89 13.512 70.385
90 9.979 16.717
91 27.335 23.721
92 33.801 47.214
93 16.597 51.748
94 1.443 55.223
95 52.744 57.747
96 34.061 56.531
97 91.181 11.380
98 35.772 38.396
99 98.918 23.053
100 58.630 62.433
DEMAND_SECTION
0 0.000
1 9.000
2 3.000
3 2.000
4 9.000
5 9.000
6 4.000
7 10.000
8 5.000
9 6.000
10 5.000
11 3.000
12 9.000
13 2.000
14 8.000
15 1.000
16 7.000
17 6.000
18 7.000
19 8.000
20 7.000
21 10.000
22 10.000
23 1.000
24 8.000
25 5.000
26 3.000
27 10.000
28 5.000
29 7.000
30 2.000
31 10.000
32 4.000
33 3.000
34 3.000
35 4.000
36 2.000
37 7.000
38 9.000
39 8.000
40 2.000
41 4.000
42 4.000
43 2.000
44 6.000
45 10.000
46 8.000
47 5.000
48 2.000
49 9.000
50 3.000
51 6.000
52 4.000
53 9.000
54 5.000
55 10.000
56 7.000
57 8.000
58 2.000
59 1.000
60 2.000
61 6.000
62 9.000
63 5.000
64 7.000
65 7.000
66 7.000
67 7.000
68 1.000
69 2.000
70 5.000
71 1.000
72 7.000
73 5.000
74 1.000
75 5.000
76 8.000
77 8.000
78 10.000
79 7.000
80 2.000
81 9.000
82 8.000
83 7.000
84 5.000
85 3.000
86 10.000
87 6.000
88 5.000
89 5.000
90 10.000
91 2.000
92 2.000
93 5.000
94 4.000
95 3.000
96 3.000
97 6.000
98 7.000
99 2.000
100 8.000
PRIORITY_SECTION
0 0.000
1 0.000
2 5.000
3 2.000
4 5.000
5 0.000
6 5.000
7 0.000
8 1.000
9 0.000
10 0.000
11 0.000
12 0.000
13 0.000
14 0.000
15 0.000
16 0.000
17 0.000
18 1.000
19 0.000
20 2.000
21 5.000
22 5.000
23 0.000
24 5.000
25 0.000
26 2.000
27 2.000
28 0.000
29 2.000
30 0.000
31 5.000
32 0.000
33 0.000
34 2.000
35 0.000
36 0.000
37 1.000
38 0.000
39 2.000
40 0.000
41 2.000
42 0.000
43 1.000
44 0.000
45 1.000
46 0.000
47 0.000
48 0.000
49 5.000
50 0.000
51 0.000
52 0.000
53 5.000
54 5.000
55 0.000
56 0.000
57 1.000
58 0.000
59 1.000
60 5.000
61 0.000
62 0.000
63 5.000
64 0.000
65 5.000
66 1.000
67 5.000
68 0.000
69 2.000
70 0.000
71 1.000
72 2.000
73 1.000
74 0.000
75 0.000
76 5.000
77 0.000
78 0.000
79 2.000
80 0.000
81 1.000
82 1.000
83 0.000
84 5.000
85 2.000
86 0.000
87 0.000
88 0.000
89 0.000
90 2.000
91 0.000
92 1.000
93 5.000
94 0.000
95 0.000
96 0.000
97 1.000
98 5.000
99 0.000
100 5.000
VEHICLE_SECTION
1 22.400 20.000 1.000
2 22.990 35.000 1.200
3 23.580 50.000 1.400
4 24.170 65.000 1.600
5 24.760 80.000 1.800
6 25.350 95.000 2.000
7 25.940 110.000 2.200
8 26.530 125.000 2.400
9 27.120 140.000 2.600
10 27.710 155.000 2.800
11 28.290 170.000 3.000
12 28.880 185.000 3.200
13 29.470 200.000 3.400
14 30.060 215.000 3.600
15 30.650 230.000 3.800
16 31.240 245.000 4.000
17 31.830 260.000 4.200
18 32.420 275.000 4.400
19 33.010 290.000 4.600
20 359.450 305.000 4.800
EOF
