NAME: hfvrp_n010_m03_s01
CUSTOMERS: 10
VEHICLES: 3
NODE_COORD_SECTION
0 50.000 50.000
1 16.450 41.581
2 96.919 42.891
3 66.286 9.405
4 54.430 72.374
5 71.868 1.585
6 66.807 63.515
7 9.136 72.792
8 82.515 33.664
9 14.379 40.007
10 65.428 86.976
DEMAND_SECTION
0 0.000
1 10.000
2 6.000
3 9.000
4 1.000
5 6.000
6 6.000
7 7.000
8 4.000
9 5.000
10 3.000
PRIORITY_SECTION
0 0.000
1 0.000
2 0.000
3 0.000
4 1.000
5 0.000
6 2.000
7 0.000
8 0.000
9 0.000
10 5.000
VEHICLE_SECTION
1 15.200 20.000 1.000
2 19.000 35.000 1.200
3 56.740 50.000 1.400
EOF
