NAME: hfvrp_n010_m03_s05
CUSTOMERS: 10
VEHICLES: 3
NODE_COORD_SECTION
0 50.000 50.000
1 26.193 62.146
2 91.268 15.612
3 10.056 52.531
4 14.719 46.367
5 0.359 11.219
6 6.173 72.034
7 12.293 86.909
8 24.876 17.141
9 77.796 43.006
10 77.281 6.492
DEMAND_SECTION
0 0.000
1 1.000
2 2.000
3 3.000
4 5.000
5 4.000
6 10.000
7 8.000
8 8.000
9 6.000
10 3.000
PRIORITY_SECTION
0 0.000
1 1.000
2 0.000
3 1.000
4 2.000
5 0.000
6 1.000
7 1.000
8 1.000
9 0.000
10 1.000
VEHICLE_SECTION
1 13.330 20.000 1.000
2 16.670 35.000 1.200
3 49.760 50.000 1.400
EOF
