NAME: hfvrp_n200_m40_s03
CUSTOMERS: 200
VEHICLES: 40
NODE_COORD_SECTION
0 50.000 50.000
1 75.827 21.646
2 75.852 2.828
3 1.403 88.274
4 80.332 30.095
5 75.536 35.674
6 0.844 35.827
7 75.221 69.346
8 97.001 97.887
9 60.359 17.610
10 26.461 30.827
11 8.044 20.947
12 69.599 82.379
13 22.337 34.429
14 8.602 23.279
15 19.210 85.654
16 96.731 17.383
17 41.442 49.640
18 69.762 9.480
19 93.977 51.721
20 39.636 87.218
21 30.383 73.064
22 12.106 36.324
23 22.743 65.883
24 70.869 31.972
25 41.160 40.838
26 61.811 64.923
27 29.484 35.021
28 19.966 86.865
29 23.044 98.346
30 16.523 26.577
31 28.102 74.200
32 70.950 37.297
33 94.079 79.788
34 6.054 99.785
35 37.012 20.687
36 49.159 46.381
37 26.306 50.433
38 99.029 49.516
39 98.406 85.649
40 7.209 73.556
41 88.776 66.648
42 70.495 24.005
43 11.486 51.060
44 5.133 88.761
45 76.453 79.648
46 48.110 74.901
47 75.011 47.299
48 62.621 99.783
49 60.774 15.579
50 38.614 12.051
51 31.914 78.752
52 67.419 23.459
53 15.051 55.655
54 78.807 8.958
55 37.619 94.798
56 60.357 64.223
57 79.186 49.945
58 95.298 9.980
59 69.427 81.871
60 90.662 5.518
61 15.599 28.396
62 50.732 17.376
63 43.379 5.973
64 34.650 52.548
65 55.146 71.424
66 75.060 10.070
67 17.893 93.285
68 0.786 91.231
69 75.580 2.343
70 55.467 55.403
71 20.844 49.923
72 83.169 91.465
73 15.052 81.043
74 34.188 93.634
75 33.137 63.199
76 7.471 82.103
77 92.185 3.827
78 23.877 18.023
79 52.070 34.518
80 94.534 34.157
81 48.975 64.213
82 53.799 96.567
83 39.739 11.115
84 26.461 36.891
85 64.540 13.893
86 83.542 67.125
87 23.793 1.296
88 13.771 30.059
89 31.145 70.427
90 84.565 69.940
91 71.281 29.140
92 68.150 0.786
93 33.929 64.416
94 15.777 92.463
95 28.496 57.109
96 36.229 58.036
97 15.883 69.882
98 5.889 78.841
99 50.697 76.072
100 4.301 43.228
101 98.080 26.433
102 95.533 88.763
103 34.788 60.858
104 1.926 57.319
105 58.201 43.610
106 67.493 55.334
107 94.166 28.240
108 83.048 19.850
109 72.152 46.591
110 52.488 88.285
111 63.434 18.318
112 9.497 67.552
113 80.546 93.269
114 97.449 81.107
115 55.983 55.705
116 82.247 54.133
117 11.868 46.726
118 16.616 81.487
119 36.533 84.908
120 67.035 8.399
121 56.279 59.651
122 57.681 75.128
123 44.586 17.823
124 3.147 60.812
125 93.204 37.928
126 63.454 48.777
127 80.589 88.903
128 32.209 2.449
129 42.303 70.903
130 93.328 92.020
131 34.650 0.410
132 10.269 56.408
133 29.822 77.063
134 19.941 38.332
135 84.075 59.194
136 18.641 8.345
137 64.747 44.744
138 60.533 7.772
139 64.531 65.218
140 47.873 96.449
141 93.222 63.241
142 66.896 8.392
143 79.201 54.116
144 66.569 18.685
145 55.716 60.048
146 34.290 76.374
147 82.707 98.334
148 1.022 71.455
149 61.848 49.452
150 95.643 6.424
151 68.166 99.583
152 1.985 18.959
153 61.595 12.483
154 65.196 10.407
155 17.971 7.140
156 30.151 2.956
157 84.582 83.961
158 11.614 10.864
159 77.810 10.164
160 59.911 57.835
161 89.346 92.557
162 67.150 4.614
163 89.752 15.000
164 16.784 24.043
165 86.990 95.419
166 37.175 41.800
167 84.207 19.079
168 98.233 48.533
169 72.098 81.521
170 56.307 31.034
171 61.921 7.113
172 38.127 14.983
173 86.843 93.132
174 66.657 21.714
175 53.727 26.733
176 95.565 18.486
177 6.045 30.922
178 84.970 27.183
179 22.233 80.519
180 91.675 50.550
181 70.020 32.624
182 20.111 3.377
183 27.317 85.819
184 45.198 45.177
185 80.619 61.994
186 6.892 18.573
187 4.871 63.974
188 71.905 27.607
189 47.027 19.115
190 29.432 97.121
191 93.972 66.160
192 91.705 50.981
193 12.152 29.747
194 55.124 58.338
195 54.546 59.430
196 68.956 60.308
197 63.848 65.216
198 75.677 52.826
199 53.645 73.659
200 66.350 72.374
DEMAND_SECTION
0 0.000
1 10.000
2 6.000
3 6.000
4 10.000
5 2.000
6 10.000
7 7.000
8 6.000
9 4.000
10 6.000
11 2.000
12 4.000
13 4.000
14 7.000
15 3.000
16 10.000
17 4.000
18 7.000
19 6.000
20 9.000
21 2.000
22 3.000
23 2.000
24 6.000
25 2.000
26 7.000
27 5.000
28 3.000
29 4.000
30 3.000
31 10.000
32 7.000
33 1.000
34 4.000
35 6.000
36 2.000
37 5.000
38 2.000
39 4.000
40 1.000
41 7.000
42 6.000
43 10.000
44 7.000
45 2.000
46 1.000
47 4.000
48 5.000
49 1.000
50 3.000
51 4.000
52 10.000
53 2.000
54 5.000
55 5.000
56 6.000
57 3.000
58 3.000
59 1.000
60 3.000
61 2.000
62 5.000
63 4.000
64 7.000
65 2.000
66 3.000
67 1.000
68 9.000
69 8.000
70 4.000
71 9.000
72 9.000
73 3.000
74 4.000
75 1.000
76 9.000
77 1.000
78 10.000
79 8.000
80 5.000
81 6.000
82 2.000
83 1.000
84 10.000
85 4.000
86 9.000
87 9.000
88 10.000
89 10.000
90 1.000
91 9.000
92 6.000
93 3.000
94 1.000
95 6.000
96 3.000
97 5.000
98 7.000
99 8.000
100 2.000
101 7.000
102 10.000
103 10.000
104 5.000
105 3.000
106 2.000
107 6.000
108 3.000
109 9.000
110 2.000
111 5.000
112 3.000
113 2.000
114 4.000
115 9.000
116 10.000
117 4.000
118 6.000
119 5.000
120 8.000
121 8.000
122 6.000
123 6.000
124 8.000
125 6.000
126 8.000
127 1.000
128 10.000
129 10.000
130 9.000
131 4.000
132 3.000
133 4.000
134 7.000
135 10.000
136 3.000
137 1.000
138 5.000
139 2.000
140 1.000
141 6.000
142 8.000
143 10.000
144 1.000
145 2.000
146 4.000
147 10.000
148 4.000
149 8.000
150 3.000
151 7.000
152 8.000
153 1.000
154 4.000
155 1.000
156 7.000
157 2.000
158 9.000
159 5.000
160 10.000
161 8.000
162 10.000
163 7.000
164 2.000
165 8.000
166 4.000
167 9.000
168 7.000
169 7.000
170 1.000
171 8.000
172 6.000
173 8.000
174 8.000
175 2.000
176 2.000
177 4.000
178 7.000
179 2.000
180 4.000
181 8.000
182 7.000
183 7.000
184 5.000
185 8.000
186 9.000
187 3.000
188 6.000
189 7.000
190 7.000
191 2.000
192 4.000
193 9.000
194 6.000
195 5.000
196 10.000
197 9.000
198 7.000
199 10.000
200 2.000
PRIORITY_SECTION
0 0.000
1 2.000
2 5.000
3 1.000
4 5.000
5 0.000
6 0.000
7 2.000
8 1.000
9 0.000
10 0.000
11 2.000
12 0.000
13 0.000
14 5.000
15 5.000
16 2.000
17 2.000
18 0.000
19 5.000
20 0.000
21 0.000
22 2.000
23 0.000
24 5.000
25 2.000
26 0.000
27 2.000
28 5.000
29 2.000
30 2.000
31 5.000
32 1.000
33 5.000
34 1.000
35 5.000
36 1.000
37 2.000
38 2.000
39 2.000
40 0.000
41 1.000
42 2.000
43 0.000
44 1.000
45 2.000
46 5.000
47 1.000
48 2.000
49 1.000
50 2.000
51 1.000
52 2.000
53 1.000
54 2.000
55 0.000
56 0.000
57 5.000
58 1.000
59 5.000
60 2.000
61 0.000
62 0.000
63 1.000
64 5.000
65 1.000
66 1.000
67 5.000
68 1.000
69 1.000
70 5.000
71 0.000
72 1.000
73 0.000
74 0.000
75 0.000
76 0.000
77 1.000
78 1.000
79 1.000
80 2.000
81 1.000
82 5.000
83 0.000
84 0.000
85 0.000
86 5.000
87 0.000
88 0.000
89 0.000
90 0.000
91 0.000
92 1.000
93 2.000
94 2.000
95 0.000
96 0.000
97 0.000
98 0.000
99 0.000
100 0.000
101 2.000
102 0.000
103 2.000
104 0.000
105 2.000
106 5.000
107 5.000
108 0.000
109 0.000
110 2.000
111 1.000
112 0.000
113 2.000
114 0.000
115 0.000
116 0.000
117 0.000
118 1.000
119 5.000
120 0.000
121 5.000
122 5.000
123 1.000
124 0.000
125 5.000
126 0.000
127 0.000
128 0.000
129 5.000
130 0.000
131 1.000
132 0.000
133 0.000
134 5.000
135 2.000
136 0.000
137 2.000
138 2.000
139 0.000
140 0.000
141 2.000
142 0.000
143 2.000
144 1.000
145 0.000
146 5.000
147 5.000
148 0.000
149 1.000
150 0.000
151 1.000
152 5.000
153 1.000
154 2.000
155 1.000
156 2.000
157 0.000
158 2.000
159 2.000
160 5.000
161 1.000
162 5.000
163 0.000
164 5.000
165 2.000
166 0.000
167 5.000
168 0.000
169 0.000
170 1.000
171 5.000
172 1.000
173 5.000
174 5.000
175 2.000
176 1.000
177 0.000
178 0.000
179 1.000
180 2.000
181 2.000
182 5.000
183 0.000
184 0.000
185 0.000
186 0.000
187 0.000
188 5.000
189 0.000
190 0.000
191 0.000
192 2.000
193 1.000
194 0.000
195 0.000
196 0.000
197 5.000
198 2.000
199 0.000
200 0.000
VEHICLE_SECTION
1 21.720 20.000 1.000
2 22.000 35.000 1.200
3 22.280 50.000 1.400
4 22.560 65.000 1.600
5 22.830 80.000 1.800
6 23.110 95.000 2.000
7 23.390 110.000 2.200
8 23.670 125.000 2.400
9 23.950 140.000 2.600
10 24.230 155.000 2.800
11 24.500 170.000 3.000
12 24.780 185.000 3.200
13 25.060 200.000 3.400
14 25.340 215.000 3.600
15 25.620 230.000 3.800
16 25.900 245.000 4.000
17 26.180 260.000 4.200
18 26.450 275.000 4.400
19 26.730 290.000 4.600
20 27.010 305.000 4.800
21 27.290 320.000 5.000
22 27.570 335.000 5.200
23 27.850 350.000 5.400
24 28.120 365.000 5.600
25 28.400 380.000 5.800
26 28.680 395.000 6.000
27 28.960 410.000 6.200
28 29.240 425.000 6.400
29 29.520 440.000 6.600
30 29.800 455.000 6.800
31 30.070 470.000 7.000
32 30.350 485.000 7.200
33 30.630 500.000 7.400
34 30.910 515.000 7.600
35 31.190 530.000 7.800
36 31.470 545.000 8.000
37 31.740 560.000 8.200
38 32.020 575.000 8.400
39 32.300 590.000 8.600
40 602.380 605.000 8.800
EOF
