NAME: hfvrp_n100_m20_s01
CUSTOMERS: 100
VEHICLES: 20
NODE_COORD_SECTION
0 50.000 50.000
1 91.890 37.211
2 86.331 48.355
3 67.660 19.031
4 9.791 31.395
5 29.205 35.694
6 60.834 6.777
7 43.498 27.642
8 6.854 82.315
9 0.384 77.315
10 1.662 92.639
11 42.051 8.911
12 89.092 50.269
13 38.784 96.461
14 72.878 49.303
15 85.365 7.679
16 98.860 61.036
17 56.467 43.626
18 90.233 97.029
19 42.187 89.782
20 0.216 25.632
21 45.886 20.292
22 60.701 19.250
23 63.225 7.241
24 95.274 9.128
25 15.276 0.635
26 45.116 81.100
27 21.856 47.359
28 5.984 45.155
29 84.239 42.091
30 37.415 92.360
31 72.863 28.331
32 73.885 89.531
33 92.595 28.017
34 73.750 8.650
35 13.245 68.089
36 85.600 91.065
37 94.558 74.001
38 21.878 87.481
39 96.345 48.709
40 94.846 86.522
41 18.587 85.385
42 51.595 78.578
43 94.925 95.505
44 98.292 94.939
45 36.992 82.143
46 91.170 49.905
47 80.951 11.197
48 12.399 43.707
49 68.469 33.057
50 21.836 94.756
51 64.552 25.964
52 73.904 57.354
53 10.923 3.188
54 5.560 86.080
55 58.188 11.874
56 96.955 87.836
57 78.544 62.522
58 43.582 95.959
59 29.846 33.952
60 75.809 53.233
61 62.526 39.690
62 68.959 24.665
63 23.293 4.378
64 4.686 41.390
65 95.655 27.289
66 24.425 50.159
67 23.651 79.270
68 53.766 23.948
69 95.968 15.836
70 15.957 71.847
71 24.983 1.578
72 62.461 17.113
73 17.800 67.499
74 71.846 24.912
75 86.310 64.195
76 40.791 31.193
77 89.123 54.288
78 7.746 65.928
79 13.310 40.112
80 48.945 59.748
81 26.755 4.873
82 21.991 44.432
83 36.980 21.600
84 93.669 31.284
85 71.951 23.417
86 84.110 98.946
87 93.170 6.365
88 14.854 83.440
89 50.585 81.067
90 53.537 45.515
91 85.935 30.973
92 80.440 35.245
93 43.926 71.436
94 0.666 21.912
95 61.029 21.238
96 11.279 81.495
97 59.359 52.787
98 22.604 10.414
99 57.846 35.311
100 87.357 7.700
DEMAND_SECTION
0 0.000
1 6.000
2 3.000
3 4.000
4 3.000
5 5.000
6 9.000
7 8.000
8 4.000
9 5.000
10 9.000
11 4.000
12 2.000
13 2.000
14 1.000
15 10.000
16 10.000
17 4.000
18 10.000
19 6.000
20 8.000
21 3.000
22 6.000
23 6.000
24 10.000
25 1.000
26 8.000
27 8.000
28 9.000
29 8.000
30 3.000
31 2.000
32 9.000
33 7.000
34 1.000
35 4.000
36 8.000
37 7.000
38 3.000
39 7.000
40 6.000
41 5.000
42 9.000
43 5.000
44 2.000
45 7.000
46 10.000
47 10.000
48 5.000
49 1.000
50 7.000
51 5.000
52 9.000
53 9.000
54 5.000
55 1.000
56 7.000
57 9.000
58 2.000
59 4.000
60 10.000
61 7.000
62 6.000
63 10.000
64 10.000
65 10.000
66 3.000
67 3.000
68 9.000
69 3.000
70 3.000
71 9.000
72 2.000
73 6.000
74 4.000
75 3.000
76 5.000
77 8.000
78 3.000
79 8.000
80 6.000
81 4.000
82 7.000
83 9.000
84 3.000
85 2.000
86 5.000
87 4.000
88 4.000
89 8.000
90 2.000
91 4.000
92 5.000
93 6.000
94 9.000
95 8.000
96 9.000
97 2.000
98 7.000
99 7.000
100 9.000
PRIORITY_SECTION
0 0.000
1 1.000
2 5.000
3 0.000
4 0.000
5 1.000
6 0.000
7 1.000
8 1.000
9 5.000
10 1.000
11 1.000
12 1.000
13 1.000
14 0.000
15 2.000
16 0.000
17 1.000
18 1.000
19 1.000
20 0.000
21 2.000
22 2.000
23 0.000
24 2.000
25 0.000
26 2.000
27 0.000
28 0.000
29 0.000
30 0.000
31 0.000
32 5.000
33 0.000
34 1.000
35 1.000
36 2.000
37 5.000
38 1.000
39 5.000
40 2.000
41 2.000
42 2.000
43 0.000
44 1.000
45 0.000
46 0.000
47 0.000
48 2.000
49 0.000
50 2.000
51 0.000
52 2.000
53 5.000
54 2.000
55 1.000
56 0.000
57 5.000
58 0.000
59 1.000
60 5.000
61 5.000
62 1.000
63 5.000
64 0.000
65 5.000
66 1.000
67 0.000
68 1.000
69 0.000
70 5.000
71 0.000
72 2.000
73 0.000
74 0.000
75 0.000
76 0.000
77 2.000
78 2.000
79 1.000
80 0.000
81 0.000
82 5.000
83 5.000
84 0.000
85 0.000
86 0.000
87 0.000
88 0.000
89 2.000
90 1.000
91 1.000
92 0.000
93 0.000
94 5.000
95 2.000
96 0.000
97 0.000
98 5.000
99 0.000
100 0.000
VEHICLE_SECTION
1 23.320 20.000 1.000
2 23.930 35.000 1.200
3 24.550 50.000 1.400
4 25.160 65.000 1.600
5 25.770 80.000 1.800
6 26.390 95.000 2.000
7 27.000 110.000 2.200
8 27.620 125.000 2.400
9 28.230 140.000 2.600
10 28.840 155.000 2.800
11 29.460 170.000 3.000
12 30.070 185.000 3.200
13 30.680 200.000 3.400
14 31.300 215.000 3.600
15 31.910 230.000 3.800
16 32.530 245.000 4.000
17 33.140 260.000 4.200
18 33.750 275.000 4.400
19 34.370 290.000 4.600
20 374.320 305.000 4.800
EOF
