NAME: hfvrp_n100_m20_s04
CUSTOMERS: 100
VEHICLES: 20
NODE_COORD_SECTION
0 50.000 50.000
1 87.886 24.268
2 37.373 86.436
3 45.043 3.858
4 0.595 21.603
5 84.437 47.629
6 60.955 6.702
7 49.511 34.313
8 72.227 27.590
9 39.712 18.976
10 12.701 82.720
11 5.293 22.527
12 75.148 64.272
13 66.309 9.163
14 78.279 2.542
15 17.568 24.046
16 97.046 68.263
17 29.201 35.119
18 35.659 37.082
19 39.355 47.996
20 51.408 76.645
21 75.728 52.184
22 54.759 35.216
23 97.705 20.970
24 21.323 36.130
25 92.498 53.940
26 16.413 53.161
27 58.696 70.007
28 32.851 55.657
29 87.607 51.767
30 53.336 74.601
31 68.015 43.623
32 98.353 55.150
33 65.973 64.276
34 77.450 91.176
35 21.134 42.223
36 22.941 13.148
37 12.618 30.456
38 53.231 21.223
39 41.023 60.003
40 11.468 87.816
41 81.693 88.070
42 79.726 27.580
43 76.379 2.910
44 45.591 19.772
45 16.392 71.177
46 68.769 77.269
47 25.045 27.830
48 3.458 39.892
49 30.310 53.770
50 75.979 26.686
51 92.239 11.730
52 14.067 23.513
53 61.090 20.613
54 76.486 83.422
55 11.093 45.873
56 13.644 71.476
57 0.980 0.664
58 29.717 47.359
59 60.887 78.806
60 57.641 0.278
61 86.107 45.746
62 68.457 91.694
63 53.501 4.021
64 30.533 24.265
65 84.175 33.086
66 25.863 48.799
67 12.327 72.417
68 64.336 97.665
69 59.240 83.459
70 37.414 92.403
71 48.933 59.075
72 71.504 66.073
73 3.520 57.728
74 67.172 83.930
75 93.317 58.686
76 43.070 78.199
77 99.104 59.604
78 88.078 86.621
79 51.386 58.689
80 66.952 41.309
81 72.269 7.466
82 52.620 79.920
83 61.623 36.307
84 87.164 78.638
85 89.339 23.609
86 86.250 28.408
87 93.075 55.549
88 94.592 54.081
89 63.356 12.511
90 65.093 43.650
91 18.779 92.874
92 88.074 82.340
93 95.367 36.314
94 59.779 37.052
95 76.928 78.634
96 63.333 55.636
97 37.477 2.157
98 75.152 65.812
99 64.721 64.515
100 21.201 34.005
DEMAND_SECTION
0 0.000
1 7.000
2 2.000
3 1.000
4 4.000
5 2.000
6 1.000
7 5.000
8 9.000
9 4.000
10 2.000
11 10.000
12 8.000
13 1.000
14 10.000
15 3.000
16 3.000
17 3.000
18 8.000
19 10.000
20 6.000
21 3.000
22 8.000
23 4.000
24 7.000
25 4.000
26 6.000
27 6.000
28 9.000
29 3.000
30 9.000
31 4.000
32 4.000
33 4.000
34 3.000
35 7.000
36 8.000
37 1.000
38 3.000
39 10.000
40 8.000
41 8.000
42 1.000
43 10.000
44 6.000
45 6.000
46 9.000
47 4.000
48 3.000
49 3.000
50 6.000
51 6.000
52 2.000
53 10.000
54 3.000
55 10.000
56 7.000
57 5.000
58 2.000
59 2.000
60 3.000
61 3.000
62 8.000
63 8.000
64 2.000
65 10.000
66 6.000
67 10.000
68 4.000
69 5.000
70 4.000
71 7.000
72 6.000
73 5.000
74 1.000
75 10.000
76 8.000
77 2.000
78 9.000
79 4.000
80 4.000
81 4.000
82 6.000
83 7.000
84 10.000
85 1.000
86 5.000
87 5.000
88 9.000
89 10.000
90 10.000
91 8.000
92 8.000
93 4.000
94 7.000
95 5.000
96 9.000
97 9.000
98 7.000
99 1.000
100 10.000
PRIORITY_SECTION
0 0.000
1 0.000
2 0.000
3 5.000
4 1.000
5 2.000
6 0.000
7 2.000
8 0.000
9 0.000
10 2.000
11 0.000
12 2.000
13 5.000
14 0.000
15 0.000
16 2.000
17 5.000
18 2.000
19 2.000
20 0.000
21 5.000
22 0.000
23 2.000
24 0.000
25 2.000
26 1.000
27 1.000
28 0.000
29 0.000
30 0.000
31 1.000
32 0.000
33 5.000
34 2.000
35 5.000
36 5.000
37 0.000
38 2.000
39 0.000
40 1.000
41 5.000
42 5.000
43 1.000
44 0.000
45 0.000
46 0.000
47 0.000
48 0.000
49 0.000
50 2.000
51 2.000
52 0.000
53 2.000
54 0.000
55 1.000
56 0.000
57 2.000
58 0.000
59 2.000
60 0.000
61 1.000
62 0.000
63 2.000
64 2.000
65 0.000
66 5.000
67 5.000
68 2.000
69 2.000
70 0.000
71 1.000
72 0.000
73 2.000
74 0.000
75 0.000
76 0.000
77 5.000
78 0.000
79 5.000
80 0.000
81 2.000
82 2.000
83 0.000
84 0.000
85 0.000
86 1.000
87 0.000
88 0.000
89 0.000
90 5.000
91 5.000
92 2.000
93 0.000
94 0.000
95 0.000
96 0.000
97 1.000
98 0.000
99 2.000
100 0.000
VEHICLE_SECTION
1 22.680 20.000 1.000
2 23.280 35.000 1.200
3 23.870 50.000 1.400
4 24.470 65.000 1.600
5 25.070 80.000 1.800
6 25.660 95.000 2.000
7 26.260 110.000 2.200
8 26.860 125.000 2.400
9 27.450 140.000 2.600
10 28.050 155.000 2.800
11 28.650 170.000 3.000
12 29.250 185.000 3.200
13 29.840 200.000 3.400
14 30.440 215.000 3.600
15 31.040 230.000 3.800
16 31.630 245.000 4.000
17 32.230 260.000 4.200
18 32.830 275.000 4.400
19 33.420 290.000 4.600
20 364.010 305.000 4.800
EOF
