NAME: hfvrp_n075_m15_s03
CUSTOMERS: 75
VEHICLES: 15
NODE_COORD_SECTION
0 50.000 50.000
1 74.739 1.582
2 91.265 7.658
3 86.013 16.371
4 66.203 50.217
5 3.090 53.244
6 96.007 20.407
7 96.832 42.393
8 70.839 47.731
9 51.409 96.561
10 97.953 88.021
11 39.940 35.322
12 3.585 6.118
13 88.804 11.657
14 8.543 10.315
15 42.655 25.734
16 22.447 42.649
17 68.803 30.429
18 24.611 97.273
19 17.362 59.294
20 21.426 3.965
21 36.509 74.372
22 55.941 36.525
23 37.211 84.275
24 54.471 69.336
25 57.558 12.898
26 97.221 45.440
27 40.829 14.892
28 42.494 5.861
29 70.792 8.170
30 21.563 92.666
31 24.972 4.192
32 5.224 67.537
33 1.824 34.446
34 87.795 76.795
35 32.548 12.415
36 57.704 11.987
37 16.802 41.022
38 6.873 38.698
39 16.719 35.514
40 71.750 74.681
41 31.510 99.936
42 0.933 73.067
43 49.813 89.477
44 87.074 74.499
45 3.377 34.159
46 18.071 40.941
47 76.310 17.285
48 5.499 18.567
49 57.991 35.644
50 62.342 40.609
51 99.494 92.884
52 27.895 55.904
53 95.275 80.666
54 38.056 44.161
55 91.021 92.486
56 46.454 10.121
57 5.519 80.891
58 23.813 52.421
59 38.458 95.328
60 34.230 62.465
61 80.970 41.155
62 20.786 19.365
63 66.996 34.224
64 11.439 21.994
65 79.607 87.063
66 93.214 15.167
67 88.204 24.913
68 13.042 51.602
69 86.320 26.881
70 91.989 86.045
71 52.362 48.075
72 28.685 91.523
73 97.944 70.644
74 50.536 17.640
75 20.713 41.481
DEMAND_SECTION
0 0.000
1 3.000
2 9.000
3 2.000
4 10.000
5 10.000
6 1.000
7 9.000
8 9.000
9 3.000
10 7.000
11 8.000
12 1.000
13 5.000
14 4.000
15 9.000
16 1.000
17 8.000
18 7.000
19 1.000
20 5.000
21 10.000
22 10.000
23 10.000
24 8.000
25 4.000
26 2.000
27 1.000
28 4.000
29 4.000
30 2.000
31 10.000
32 5.000
33 3.000
34 5.000
35 10.000
36 6.000
37 5.000
38 3.000
39 4.000
40 5.000
41 3.000
42 8.000
43 10.000
44 3.000
45 7.000
46 8.000
47 3.000
48 1.000
49 5.000
50 8.000
51 8.000
52 3.000
53 6.000
54 8.000
55 10.000
56 10.000
57 4.000
58 7.000
59 3.000
60 7.000
61 8.000
62 8.000
63 3.000
64 2.000
65 9.000
66 8.000
67 1.000
68 1.000
69 10.000
70 5.000
71 5.000
72 2.000
73 5.000
74 8.000
75 10.000
PRIORITY_SECTION
0 0.000
1 1.000
2 0.000
3 1.000
4 5.000
5 2.000
6 2.000
7 1.000
8 2.000
9 0.000
10 5.000
11 0.000
12 5.000
13 1.000
14 1.000
15 2.000
16 0.000
17 0.000
18 0.000
19 5.000
20 0.000
21 2.000
22 5.000
23 5.000
24 0.000
25 0.000
26 2.000
27 1.000
28 0.000
29 5.000
30 0.000
31 0.000
32 5.000
33 0.000
34 2.000
35 0.000
36 2.000
37 2.000
38 0.000
39 0.000
40 2.000
41 0.000
42 5.000
43 0.000
44 2.000
45 2.000
46 2.000
47 1.000
48 1.000
49 2.000
50 0.000
51 5.000
52 0.000
53 2.000
54 2.000
55 2.000
56 0.000
57 0.000
58 0.000
59 0.000
60 5.000
61 0.000
62 5.000
63 1.000
64 5.000
65 0.000
66 0.000
67 1.000
68 0.000
69 0.000
70 0.000
71 5.000
72 2.000
73 2.000
74 0.000
75 0.000
VEHICLE_SECTION
1 22.930 20.000 1.000
2 23.750 35.000 1.200
3 24.570 50.000 1.400
4 25.390 65.000 1.600
5 26.210 80.000 1.800
6 27.030 95.000 2.000
7 27.850 110.000 2.200
8 28.670 125.000 2.400
9 29.490 140.000 2.600
10 30.300 155.000 2.800
11 31.120 170.000 3.000
12 31.940 185.000 3.200
13 32.760 200.000 3.400
14 33.580 215.000 3.600
15 255.650 230.000 3.800
EOF
