NAME: hfvrp_n020_m04_s01
CUSTOMERS: 20
VEHICLES: 4
NODE_COORD_SECTION
0 50.000 50.000
1 38.679 86.823
2 86.730 22.814
3 46.077 63.991
4 63.563 46.373
5 86.146 99.806
6 43.091 64.385
7 5.115 35.414
8 16.923 35.466
9 98.298 53.625
10 85.265 19.464
11 35.435 71.251
12 67.463 18.396
13 79.939 81.535
14 17.166 42.761
15 43.249 4.679
16 46.007 58.781
17 34.378 69.775
18 75.725 24.313
19 58.197 28.405
20 37.785 49.907
DEMAND_SECTION
0 0.000
1 10.000
2 7.000
3 5.000
4 6.000
5 5.000
6 1.000
7 9.000
8 5.000
9 2.000
10 3.000
11 7.000
12 2.000
13 2.000
14 6.000
15 6.000
16 2.000
17 9.000
18 7.000
19 9.000
20 5.000
PRIORITY_SECTION
0 0.000
1 2.000
2 0.000
3 1.000
4 2.000
5 0.000
6 0.000
7 0.000
8 0.000
9 5.000
10 0.000
11 1.000
12 0.000
13 0.000
14 0.000
15 0.000
16 2.000
17 1.000
18 1.000
19 5.000
20 2.000
VEHICLE_SECTION
1 21.600 20.000 1.000
2 25.200 35.000 1.200
3 28.800 50.000 1.400
4 96.760 65.000 1.600
EOF
