NAME: hfvrp_n015_m03_s04
CUSTOMERS: 15
VEHICLES: 3
NODE_COORD_SECTION
0 50.000 50.000
1 11.253 89.065
2 30.392 14.168
3 21.607 29.088
4 91.528 79.171
5 44.065 58.278
6 30.025 94.055
7 82.345 0.611
8 74.053 41.435
9 93.066 98.245
10 40.247 35.885
11 66.401 80.942
12 43.765 11.824
13 89.955 10.439
14 43.235 89.278
15 12.632 22.088
DEMAND_SECTION
0 0.000
1 3.000
2 5.000
3 9.000
4 10.000
5 7.000
6 4.000
7 2.000
8 2.000
9 5.000
10 1.000
11 1.000
12 6.000
13 9.000
14 6.000
15 4.000
PRIORITY_SECTION
0 0.000
1 0.000
2 2.000
3 2.000
4 5.000
5 5.000
6 5.000
7 0.000
8 1.000
9 2.000
10 2.000
11 0.000
12 1.000
13 5.000
14 0.000
15 2.000
VEHICLE_SECTION
1 19.730 20.000 1.000
2 24.670 35.000 1.200
3 73.640 50.000 1.400
EOF
