NAME: hfvrp_n015_m03_s05
CUSTOMERS: 15
VEHICLES: 3
NODE_COORD_SECTION
0 50.000 50.000
1 4.374 5.345
2 2.928 82.792
3 13.274 0.518
4 49.183 81.952
5 26.698 96.100
6 39.147 45.295
7 89.877 56.237
8 90.620 77.952
9 1.376 77.920
10 39.428 46.456
11 7.308 31.903
12 94.063 28.853
13 8.322 46.438
14 55.233 73.005
15 98.077 50.092
DEMAND_SECTION
0 0.000
1 10.000
2 10.000
3 1.000
4 4.000
5 4.000
6 8.000
7 2.000
8 1.000
9 9.000
10 10.000
11 4.000
12 4.000
13 10.000
14 2.000
15 5.000
PRIORITY_SECTION
0 0.000
1 1.000
2 2.000
3 2.000
4 0.000
5 0.000
6 0.000
7 0.000
8 0.000
9 5.000
10 0.000
11 1.000
12 0.000
13 0.000
14 0.000
15 0.000
VEHICLE_SECTION
1 22.400 20.000 1.000
2 28.000 35.000 1.200
3 83.600 50.000 1.400
EOF
