NAME: hfvrp_n030_m06_s05
CUSTOMERS: 30
VEHICLES: 6
NODE_COORD_SECTION
0 50.000 50.000
1 41.719 83.840
2 99.725 42.402
3 92.580 7.090
4 26.266 67.150
5 93.155 33.643
6 85.713 19.983
7 9.240 33.939
8 7.795 10.771
9 4.426 57.584
10 62.699 58.659
11 90.061 1.296
12 8.991 79.249
13 88.015 80.436
14 83.789 26.720
15 47.985 42.662
16 78.607 86.901
17 97.386 59.870
18 79.628 16.182
19 88.627 90.122
20 62.512 82.912
21 91.742 8.142
22 67.003 77.972
23 50.004 13.215
24 40.619 31.862
25 33.851 38.343
26 28.647 1.074
27 54.040 76.943
28 87.965 27.549
29 2.428 35.202
30 66.752 66.517
DEMAND_SECTION
0 0.000
1 6.000
2 4.000
3 5.000
4 7.000
5 9.000
6 2.000
7 4.000
8 1.000
9 7.000
10 3.000
11 8.000
12 8.000
13 1.000
14 7.000
15 1.000
16 6.000
17 5.000
18 4.000
19 2.000
20 6.000
21 5.000
22 4.000
23 6.000
24 6.000
25 6.000
26 7.000
27 10.000
28 6.000
29 8.000
30 1.000
PRIORITY_SECTION
0 0.000
1 2.000
2 2.000
3 1.000
4 0.000
5 0.000
6 2.000
7 2.000
8 1.000
9 0.000
10 2.000
11 0.000
12 0.000
13 0.000
14 0.000
15 0.000
16 0.000
17 0.000
18 0.000
19 2.000
20 1.000
21 0.000
22 1.000
23 0.000
24 1.000
25 5.000
26 2.000
27 0.000
28 0.000
29 0.000
30 5.000
VEHICLE_SECTION
1 20.670 20.000 1.000
2 22.730 35.000 1.200
3 24.800 50.000 1.400
4 26.870 65.000 1.600
5 28.930 80.000 1.800
6 111.080 95.000 2.000
EOF
