NAME: hfvrp_n030_m06_s02
CUSTOMERS: 30
VEHICLES: 6
NODE_COORD_SECTION
0 50.000 50.000
1 22.106 48.290
2 7.051 89.931
3 66.430 74.450
4 30.713 4.462
5 2.410 24.282
6 1.307 86.863
7 72.565 34.676
8 58.938 63.225
9 21.147 64.015
10 60.314 37.413
11 54.256 67.622
12 39.491 16.086
13 13.953 44.220
14 31.169 78.882
15 11.192 79.265
16 90.508 32.764
17 16.506 64.516
18 23.631 55.522
19 6.806 73.830
20 30.285 0.225
21 38.379 56.487
22 70.905 43.806
23 61.893 31.641
24 28.725 33.692
25 89.996 61.992
26 65.176 87.597
27 28.006 73.950
28 8.152 10.950
29 1.766 79.253
30 11.223 15.172
DEMAND_SECTION
0 0.000
1 10.000
2 5.000
3 4.000
4 3.000
5 6.000
6 8.000
7 7.000
8 1.000
9 7.000
10 5.000
11 9.000
12 9.000
13 10.000
14 6.000
15 2.000
16 4.000
17 6.000
18 1.000
19 4.000
20 6.000
21 2.000
22 10.000
23 10.000
24 1.000
25 3.000
26 6.000
27 6.000
28 10.000
29 4.000
30 3.000
PRIORITY_SECTION
0 0.000
1 1.000
2 0.000
3 0.000
4 0.000
5 1.000
6 1.000
7 0.000
8 0.000
9 0.000
10 1.000
11 5.000
12 0.000
13 1.000
14 0.000
15 0.000
16 2.000
17 0.000
18 0.000
19 5.000
20 5.000
21 2.000
22 2.000
23 0.000
24 1.000
25 0.000
26 0.000
27 1.000
28 0.000
29 2.000
30 5.000
VEHICLE_SECTION
1 22.400 20.000 1.000
2 24.640 35.000 1.200
3 26.880 50.000 1.400
4 29.120 65.000 1.600
5 31.360 80.000 1.800
6 120.380 95.000 2.000
EOF
