NAME: hfvrp_n200_m40_s05
CUSTOMERS: 200
VEHICLES: 40
NODE_COORD_SECTION
0 50.000 50.000
1 23.933 72.144
2 84.012 88.977
3 16.227 24.130
4 3.514 27.153
5 72.315 71.793
6 10.517 71.205
7 10.856 50.693
8 94.765 86.203
9 16.318 58.971
10 52.800 41.831
11 44.177 35.091
12 65.949 71.575
13 62.179 74.989
14 39.637 44.283
15 12.415 76.773
16 56.433 89.574
17 63.373 22.732
18 7.389 36.777
19 96.491 32.646
20 59.540 62.321
21 73.647 56.749
22 87.623 6.679
23 46.246 98.693
24 22.407 12.519
25 20.465 8.730
26 54.427 98.260
27 39.241 15.158
28 77.520 46.193
29 77.221 93.021
30 52.481 43.444
31 31.063 70.718
32 94.777 65.030
33 0.792 84.779
34 57.408 47.007
35 87.108 31.120
36 78.534 31.689
37 37.593 18.082
38 65.915 2.191
39 90.985 63.860
40 45.948 95.027
41 18.967 41.841
42 88.066 67.283
43 49.572 88.722
44 77.633 6.185
45 77.459 10.738
46 68.260 1.456
47 23.259 45.413
48 21.785 82.431
49 29.248 28.283
50 53.587 54.938
51 95.417 28.298
52 1.309 11.629
53 80.383 67.040
54 28.802 99.451
55 70.740 26.314
56 33.532 30.429
57 85.241 18.053
58 83.247 62.781
59 81.683 18.455
60 47.585 49.131
61 30.329 65.089
62 56.047 56.885
63 26.346 6.223
64 68.940 77.315
65 56.281 71.181
66 46.799 36.690
67 40.990 74.912
68 8.435 36.208
69 71.580 25.330
70 2.669 63.261
71 60.749 24.189
72 84.488 93.732
73 74.637 59.670
74 79.148 76.709
75 78.890 25.481
76 19.814 15.643
77 30.428 97.616
78 88.070 4.145
79 12.581 55.170
80 79.869 96.250
81 2.722 5.220
82 41.410 40.139
83 61.751 53.524
84 39.264 74.209
85 36.108 26.240
86 12.593 7.438
87 49.220 11.239
88 61.452 97.464
89 69.917 35.507
90 58.835 40.391
91 23.883 94.892
92 12.969 27.046
93 34.144 14.986
94 37.561 23.946
95 49.141 4.962
96 67.735 44.157
97 80.472 37.149
98 67.291 5.457
99 0.368 41.911
100 82.877 12.862
101 52.805 4.409
102 55.206 37.240
103 37.855 56.552
104 24.133 76.014
105 24.232 97.119
106 53.524 21.152
107 77.981 97.060
108 78.020 90.974
109 30.354 58.364
110 29.993 27.216
111 28.850 80.001
112 0.832 73.346
113 77.949 22.185
114 19.144 46.228
115 61.782 26.749
116 2.318 20.362
117 25.983 47.111
118 44.461 76.164
119 69.541 3.355
120 49.803 8.350
121 8.592 59.365
122 47.930 71.256
123 5.525 2.164
124 0.882 82.489
125 16.404 65.139
126 27.111 91.457
127 38.857 66.785
128 39.374 0.794
129 98.999 52.496
130 74.025 81.293
131 41.096 15.323
132 68.943 48.043
133 3.286 43.105
134 41.245 4.092
135 20.093 87.280
136 90.200 63.093
137 55.755 7.448
138 15.781 61.680
139 20.821 28.317
140 57.769 33.951
141 40.816 93.717
142 66.042 33.227
143 53.088 92.109
144 68.145 29.373
145 40.631 78.635
146 41.046 33.429
147 68.335 12.701
148 67.615 33.801
149 99.342 84.486
150 70.305 30.548
151 69.345 62.155
152 11.220 8.722
153 25.372 79.074
154 16.689 4.920
155 52.909 18.340
156 29.323 88.566
157 81.245 42.399
158 69.760 95.972
159 55.986 32.985
160 89.781 88.434
161 7.035 83.403
162 62.630 42.842
163 18.915 84.436
164 31.445 11.459
165 81.907 93.534
166 71.496 87.476
167 61.203 3.450
168 62.866 49.455
169 41.814 78.302
170 77.647 21.523
171 52.984 29.159
172 80.858 75.990
173 26.488 37.294
174 2.860 53.165
175 34.697 30.877
176 23.409 3.074
177 0.827 65.920
178 49.838 46.178
179 66.862 80.410
180 9.359 18.091
181 65.656 35.161
182 28.096 86.876
183 42.623 93.508
184 87.512 23.007
185 6.346 61.709
186 59.381 61.779
187 70.795 79.716
188 51.741 80.126
189 72.274 28.296
190 29.957 28.400
191 27.235 41.992
192 37.769 84.829
193 91.901 94.926
194 69.745 56.284
195 49.199 22.588
196 50.693 42.155
197 35.126 88.011
198 35.841 85.598
199 7.726 4.813
200 7.243 99.165
DEMAND_SECTION
0 0.000
1 1.000
2 9.000
3 1.000
4 8.000
5 2.000
6 2.000
7 5.000
8 3.000
9 7.000
10 4.000
11 1.000
12 2.000
13 2.000
14 9.000
15 8.000
16 6.000
17 10.000
18 8.000
19 7.000
20 7.000
21 8.000
22 7.000
23 3.000
24 6.000
25 10.000
26 1.000
27 6.000
28 6.000
29 8.000
30 8.000
31 2.000
32 9.000
33 1.000
34 3.000
35 7.000
36 7.000
37 5.000
38 10.000
39 3.000
40 6.000
41 1.000
42 3.000
43 7.000
44 2.000
45 6.000
46 2.000
47 9.000
48 8.000
49 3.000
50 4.000
51 1.000
52 2.000
53 10.000
54 6.000
55 6.000
56 10.000
57 6.000
58 3.000
59 3.000
60 9.000
61 5.000
62 3.000
63 10.000
64 1.000
65 10.000
66 1.000
67 3.000
68 7.000
69 1.000
70 9.000
71 10.000
72 4.000
73 9.000
74 1.000
75 1.000
76 2.000
77 10.000
78 6.000
79 10.000
80 6.000
81 9.000
82 4.000
83 8.000
84 3.000
85 9.000
86 4.000
87 10.000
88 4.000
89 4.000
90 4.000
91 7.000
92 8.000
93 6.000
94 9.000
95 8.000
96 9.000
97 8.000
98 3.000
99 3.000
100 4.000
101 10.000
102 1.000
103 7.000
104 7.000
105 2.000
106 8.000
107 1.000
108 10.000
109 5.000
110 8.000
111 1.000
112 5.000
113 6.000
114 2.000
115 9.000
116 6.000
117 5.000
118 9.000
119 8.000
120 5.000
121 3.000
122 5.000
123 8.000
124 5.000
125 2.000
126 7.000
127 1.000
128 8.000
129 2.000
130 4.000
131 4.000
132 6.000
133 7.000
134 5.000
135 1.000
136 7.000
137 9.000
138 9.000
139 7.000
140 3.000
141 1.000
142 7.000
143 1.000
144 9.000
145 2.000
146 7.000
147 10.000
148 2.000
149 6.000
150 1.000
151 5.000
152 1.000
153 2.000
154 1.000
155 6.000
156 7.000
157 9.000
158 3.000
159 5.000
160 9.000
161 9.000
162 8.000
163 4.000
164 4.000
165 9.000
166 3.000
167 7.000
168 3.000
169 8.000
170 7.000
171 8.000
172 6.000
173 3.000
174 4.000
175 8.000
176 1.000
177 7.000
178 7.000
179 3.000
180 2.000
181 4.000
182 10.000
183 1.000
184 8.000
185 8.000
186 7.000
187 2.000
188 1.000
189 4.000
190 2.000
191 5.000
192 4.000
193 5.000
194 2.000
195 9.000
196 3.000
197 2.000
198 7.000
199 6.000
200 1.000
PRIORITY_SECTION
0 0.000
1 1.000
2 0.000
3 1.000
4 0.000
5 0.000
6 0.000
7 0.000
8 5.000
9 0.000
10 0.000
11 0.000
12 0.000
13 5.000
14 2.000
15 1.000
16 1.000
17 5.000
18 0.000
19 5.000
20 5.000
21 2.000
22 0.000
23 0.000
24 2.000
25 0.000
26 1.000
27 1.000
28 2.000
29 0.000
30 0.000
31 5.000
32 2.000
33 0.000
34 0.000
35 2.000
36 0.000
37 0.000
38 1.000
39 0.000
40 0.000
41 0.000
42 1.000
43 0.000
44 2.000
45 0.000
46 0.000
47 5.000
48 0.000
49 5.000
50 0.000
51 1.000
52 0.000
53 0.000
54 1.000
55 0.000
56 0.000
57 0.000
58 0.000
59 0.000
60 0.000
61 0.000
62 5.000
63 5.000
64 5.000
65 0.000
66 0.000
67 1.000
68 5.000
69 1.000
70 5.000
71 0.000
72 5.000
73 1.000
74 0.000
75 1.000
76 5.000
77 1.000
78 2.000
79 2.000
80 1.000
81 0.000
82 0.000
83 2.000
84 0.000
85 5.000
86 0.000
87 0.000
88 5.000
89 0.000
90 0.000
91 0.000
92 0.000
93 0.000
94 1.000
95 5.000
96 0.000
97 1.000
98 0.000
99 0.000
100 0.000
101 0.000
102 2.000
103 0.000
104 5.000
105 0.000
106 0.000
107 0.000
108 0.000
109 5.000
110 5.000
111 0.000
112 0.000
113 2.000
114 0.000
115 0.000
116 0.000
117 0.000
118 2.000
119 0.000
120 1.000
121 0.000
122 0.000
123 5.000
124 0.000
125 2.000
126 2.000
127 5.000
128 1.000
129 0.000
130 5.000
131 0.000
132 2.000
133 2.000
134 0.000
135 0.000
136 5.000
137 0.000
138 0.000
139 0.000
140 0.000
141 0.000
142 0.000
143 0.000
144 1.000
145 2.000
146 5.000
147 1.000
148 0.000
149 1.000
150 0.000
151 2.000
152 5.000
153 2.000
154 0.000
155 2.000
156 0.000
157 0.000
158 0.000
159 1.000
160 0.000
161 0.000
162 0.000
163 5.000
164 2.000
165 5.000
166 5.000
167 2.000
168 1.000
169 0.000
170 0.000
171 1.000
172 1.000
173 1.000
174 0.000
175 5.000
176 0.000
177 5.000
178 1.000
179 5.000
180 0.000
181 2.000
182 0.000
183 5.000
184 1.000
185 0.000
186 5.000
187 1.000
188 0.000
189 1.000
190 5.000
191 0.000
192 1.000
193 2.000
194 0.000
195 1.000
196 0.000
197 5.000
198 1.000
199 0.000
200 2.000
VEHICLE_SECTION
1 21.320 20.000 1.000
2 21.590 35.000 1.200
3 21.870 50.000 1.400
4 22.140 65.000 1.600
5 22.410 80.000 1.800
6 22.690 95.000 2.000
7 22.960 110.000 2.200
8 23.230 125.000 2.400
9 23.510 140.000 2.600
10 23.780 155.000 2.800
11 24.050 170.000 3.000
12 24.330 185.000 3.200
13 24.600 200.000 3.400
14 24.870 215.000 3.600
15 25.150 230.000 3.800
16 25.420 245.000 4.000
17 25.690 260.000 4.200
18 25.970 275.000 4.400
19 26.240 290.000 4.600
20 26.510 305.000 4.800
21 26.790 320.000 5.000
22 27.060 335.000 5.200
23 27.330 350.000 5.400
24 27.610 365.000 5.600
25 27.880 380.000 5.800
26 28.150 395.000 6.000
27 28.430 410.000 6.200
28 28.700 425.000 6.400
29 28.970 440.000 6.600
30 29.250 455.000 6.800
31 29.520 470.000 7.000
32 29.790 485.000 7.200
33 30.070 500.000 7.400
34 30.340 515.000 7.600
35 30.610 530.000 7.800
36 30.890 545.000 8.000
37 31.160 560.000 8.200
38 31.430 575.000 8.400
39 31.710 590.000 8.600
40 591.260 605.000 8.800
EOF
