NAME: hfvrp_n010_m03_s03
CUSTOMERS: 10
VEHICLES: 3
NODE_COORD_SECTION
0 50.000 50.000
1 30.497 19.176
2 45.120 97.123
3 99.255 20.820
4 5.315 32.710
5 31.828 92.719
6 6.512 34.128
7 13.682 40.271
8 80.453 60.216
9 74.243 80.021
10 7.732 89.856
DEMAND_SECTION
0 0.000
1 2.000
2 9.000
3 4.000
4 9.000
5 6.000
6 9.000
7 3.000
8 9.000
9 9.000
10 4.000
PRIORITY_SECTION
0 0.000
1 0.000
2 5.000
3 1.000
4 1.000
5 2.000
6 0.000
7 0.000
8 0.000
9 0.000
10 0.000
VEHICLE_SECTION
1 17.070 20.000 1.000
2 21.330 35.000 1.200
3 63.700 50.000 1.400
EOF
