NAME: hfvrp_n200_m40_s04
CUSTOMERS: 200
VEHICLES: 40
NODE_COORD_SECTION
0 50.000 50.000
1 24.492 49.987
2 99.901 43.190
3 74.296 87.984
4 56.247 67.303
5 16.271 75.768
6 18.614 24.370
7 42.728 74.778
8 97.052 82.062
9 46.290 72.774
10 96.424 57.777
11 59.382 79.509
12 83.979 59.470
13 5.490 89.520
14 81.138 59.852
15 10.770 59.766
16 80.306 71.359
17 12.137 67.887
18 31.983 69.554
19 99.867 67.941
20 39.371 21.150
21 24.551 2.300
22 99.403 41.508
23 3.588 39.158
24 86.714 72.486
25 62.411 64.336
26 45.491 37.190
27 62.505 54.629
28 15.460 73.232
29 82.398 57.245
30 30.432 4.067
31 52.776 73.989
32 15.912 42.867
33 6.870 80.005
34 44.583 71.988
35 43.473 52.169
36 12.795 52.161
37 42.881 4.341
38 40.557 68.873
39 20.231 57.733
40 93.331 84.008
41 75.780 25.630
42 22.725 18.453
43 94.901 36.908
44 82.817 54.956
45 39.896 32.268
46 78.330 98.686
47 40.101 66.454
48 37.982 10.448
49 35.232 87.752
50 22.233 49.361
51 58.783 10.945
52 12.177 37.973
53 76.504 17.349
54 34.924 71.514
55 4.807 33.461
56 3.182 9.186
57 50.057 8.510
58 86.094 11.697
59 25.338 65.405
60 85.109 79.867
61 71.998 4.629
62 97.425 56.488
63 62.282 38.699
64 22.070 67.132
65 42.178 61.384
66 20.722 40.313
67 40.750 10.526
68 45.371 15.971
69 62.332 27.047
70 81.490 78.880
71 53.157 98.964
72 35.357 23.348
73 67.458 13.018
74 76.721 62.771
75 51.502 70.082
76 47.745 20.216
77 76.064 68.870
78 13.985 73.401
79 56.078 2.477
80 83.326 23.894
81 8.860 73.923
82 56.847 68.175
83 4.123 43.001
84 98.274 16.231
85 29.966 89.404
86 38.552 81.657
87 18.836 40.853
88 98.368 94.899
89 95.541 0.245
90 60.585 0.661
91 31.345 60.200
92 31.716 40.758
93 59.962 64.696
94 28.684 55.468
95 17.114 94.998
96 92.572 27.225
97 15.535 28.255
98 1.661 98.255
99 25.597 24.562
100 5.965 95.758
101 81.566 25.409
102 60.788 45.727
103 26.278 8.369
104 55.542 76.881
105 70.502 63.194
106 74.852 41.880
107 40.229 30.113
108 19.031 26.268
109 57.576 45.647
110 30.078 37.420
111 76.447 78.163
112 10.845 12.344
113 55.851 11.735
114 65.155 41.920
115 96.944 92.323
116 12.144 41.956
117 16.272 96.895
118 48.187 24.064
119 24.069 97.409
120 36.401 94.369
121 35.538 30.780
122 88.128 56.381
123 43.145 60.550
124 25.521 2.146
125 12.825 46.395
126 4.988 24.594
127 10.321 65.023
128 64.774 17.734
129 78.652 53.538
130 84.910 36.457
131 90.433 66.403
132 43.539 61.157
133 18.895 50.600
134 95.240 56.093
135 95.991 95.719
136 48.653 67.945
137 50.112 90.662
138 7.754 41.532
139 81.614 67.848
140 91.804 29.331
141 33.621 25.705
142 31.926 59.859
143 37.442 77.872
144 19.226 33.854
145 84.205 90.810
146 82.287 53.719
147 68.987 26.301
148 69.501 20.220
149 50.512 23.095
150 21.879 61.363
151 85.520 26.516
152 28.608 82.210
153 51.220 34.182
154 85.360 64.556
155 32.039 5.223
156 77.123 96.623
157 46.816 27.607
158 1.090 60.213
159 40.012 43.449
160 33.853 45.923
161 67.131 69.834
162 44.046 65.880
163 57.252 65.782
164 43.704 72.463
165 8.256 7.649
166 67.937 7.640
167 82.175 34.566
168 33.842 38.280
169 41.348 17.363
170 48.097 45.840
171 73.574 36.282
172 12.475 35.917
173 18.202 24.438
174 46.498 47.861
175 74.689 55.868
176 59.401 2.616
177 68.743 70.879
178 25.672 4.251
179 93.387 43.508
180 38.445 73.355
181 3.748 15.475
182 49.565 58.593
183 98.689 55.545
184 39.643 4.315
185 85.030 12.864
186 84.514 4.868
187 83.682 47.176
188 77.089 26.075
189 80.632 13.736
190 70.518 9.016
191 23.355 88.687
192 51.559 51.947
193 40.096 24.979
194 12.186 34.670
195 52.994 38.178
196 94.322 93.820
197 57.802 39.074
198 97.641 35.433
199 21.139 67.616
200 61.624 28.669
DEMAND_SECTION
0 0.000
1 1.000
2 2.000
3 3.000
4 8.000
5 4.000
6 8.000
7 8.000
8 1.000
9 9.000
10 10.000
11 6.000
12 1.000
13 2.000
14 4.000
15 8.000
16 8.000
17 10.000
18 1.000
19 6.000
20 8.000
21 3.000
22 6.000
23 6.000
24 7.000
25 9.000
26 8.000
27 6.000
28 7.000
29 5.000
30 7.000
31 7.000
32 10.000
33 6.000
34 8.000
35 3.000
36 1.000
37 9.000
38 1.000
39 6.000
40 9.000
41 2.000
42 8.000
43 4.000
44 9.000
45 3.000
46 2.000
47 9.000
48 3.000
49 3.000
50 6.000
51 2.000
52 2.000
53 9.000
54 2.000
55 8.000
56 2.000
57 7.000
58 5.000
59 10.000
60 3.000
61 9.000
62 9.000
63 6.000
64 4.000
65 3.000
66 2.000
67 2.000
68 9.000
69 7.000
70 6.000
71 4.000
72 8.000
73 8.000
74 2.000
75 9.000
76 9.000
77 8.000
78 1.000
79 2.000
80 7.000
81 3.000
82 1.000
83 7.000
84 9.000
85 3.000
86 10.000
87 7.000
88 10.000
89 9.000
90 7.000
91 1.000
92 7.000
93 10.000
94 7.000
95 4.000
96 7.000
97 7.000
98 4.000
99 9.000
100 6.000
101 5.000
102 6.000
103 4.000
104 7.000
105 7.000
106 5.000
107 2.000
108 9.000
109 4.000
110 4.000
111 4.000
112 2.000
113 4.000
114 9.000
115 10.000
116 3.000
117 1.000
118 6.000
119 7.000
120 6.000
121 8.000
122 1.000
123 6.000
124 4.000
125 4.000
126 6.000
127 10.000
128 6.000
129 7.000
130 1.000
131 10.000
132 2.000
133 3.000
134 3.000
135 10.000
136 2.000
137 2.000
138 10.000
139 1.000
140 1.000
141 10.000
142 4.000
143 3.000
144 2.000
145 4.000
146 5.000
147 10.000
148 1.000
149 1.000
150 6.000
151 7.000
152 9.000
153 2.000
154 8.000
155 3.000
156 9.000
157 10.000
158 1.000
159 7.000
160 3.000
161 10.000
162 10.000
163 10.000
164 2.000
165 7.000
166 4.000
167 7.000
168 9.000
169 2.000
170 4.000
171 8.000
172 7.000
173 8.000
174 7.000
175 7.000
176 1.000
177 5.000
178 10.000
179 7.000
180 5.000
181 1.000
182 8.000
183 10.000
184 10.000
185 1.000
186 4.000
187 1.000
188 8.000
189 4.000
190 6.000
191 4.000
192 3.000
193 8.000
194 1.000
195 7.000
196 8.000
197 3.000
198 8.000
199 9.000
200 3.000
PRIORITY_SECTION
0 0.000
1 0.000
2 1.000
3 2.000
4 2.000
5 1.000
6 5.000
7 2.000
8 1.000
9 5.000
10 0.000
11 1.000
12 0.000
13 5.000
14 5.000
15 0.000
16 0.000
17 0.000
18 0.000
19 0.000
20 0.000
21 0.000
22 5.000
23 2.000
24 0.000
25 2.000
26 1.000
27 0.000
28 0.000
29 0.000
30 0.000
31 2.000
32 5.000
33 1.000
34 2.000
35 2.000
36 5.000
37 0.000
38 0.000
39 0.000
40 0.000
41 0.000
42 5.000
43 5.000
44 1.000
45 0.000
46 5.000
47 2.000
48 2.000
49 0.000
50 0.000
51 5.000
52 2.000
53 0.000
54 0.000
55 5.000
56 2.000
57 0.000
58 1.000
59 0.000
60 1.000
61 5.000
62 0.000
63 0.000
64 2.000
65 1.000
66 2.000
67 0.000
68 0.000
69 0.000
70 5.000
71 0.000
72 1.000
73 1.000
74 2.000
75 0.000
76 1.000
77 0.000
78 1.000
79 2.000
80 1.000
81 1.000
82 0.000
83 0.000
84 0.000
85 0.000
86 0.000
87 0.000
88 0.000
89 0.000
90 0.000
91 0.000
92 0.000
93 0.000
94 0.000
95 0.000
96 0.000
97 0.000
98 2.000
99 0.000
100 0.000
101 2.000
102 5.000
103 0.000
104 0.000
105 2.000
106 5.000
107 5.000
108 2.000
109 0.000
110 0.000
111 0.000
112 0.000
113 2.000
114 0.000
115 5.000
116 0.000
117 0.000
118 0.000
119 2.000
120 0.000
121 5.000
122 0.000
123 0.000
124 0.000
125 5.000
126 5.000
127 2.000
128 2.000
129 0.000
130 1.000
131 1.000
132 2.000
133 0.000
134 0.000
135 2.000
136 2.000
137 0.000
138 1.000
139 0.000
140 0.000
141 5.000
142 0.000
143 2.000
144 0.000
145 2.000
146 0.000
147 1.000
148 0.000
149 1.000
150 5.000
151 1.000
152 0.000
153 0.000
154 0.000
155 0.000
156 0.000
157 5.000
158 0.000
159 5.000
160 2.000
161 5.000
162 0.000
163 0.000
164 0.000
165 0.000
166 0.000
167 2.000
168 1.000
169 0.000
170 0.000
171 1.000
172 5.000
173 0.000
174 1.000
175 0.000
176 2.000
177 0.000
178 2.000
179 0.000
180 1.000
181 0.000
182 0.000
183 1.000
184 0.000
185 5.000
186 0.000
187 2.000
188 0.000
189 0.000
190 0.000
191 2.000
192 1.000
193 1.000
194 0.000
195 1.000
196 1.000
197 0.000
198 0.000
199 5.000
200 1.000
VEHICLE_SECTION
1 22.360 20.000 1.000
2 22.650 35.000 1.200
3 22.930 50.000 1.400
4 23.220 65.000 1.600
5 23.510 80.000 1.800
6 23.790 95.000 2.000
7 24.080 110.000 2.200
8 24.370 125.000 2.400
9 24.650 140.000 2.600
10 24.940 155.000 2.800
11 25.230 170.000 3.000
12 25.510 185.000 3.200
13 25.800 200.000 3.400
14 26.090 215.000 3.600
15 26.370 230.000 3.800
16 26.660 245.000 4.000
17 26.950 260.000 4.200
18 27.230 275.000 4.400
19 27.520 290.000 4.600
20 27.810 305.000 4.800
21 28.090 320.000 5.000
22 28.380 335.000 5.200
23 28.670 350.000 5.400
24 28.950 365.000 5.600
25 29.240 380.000 5.800
26 29.530 395.000 6.000
27 29.810 410.000 6.200
28 30.100 425.000 6.400
29 30.390 440.000 6.600
30 30.670 455.000 6.800
31 30.960 470.000 7.000
32 31.250 485.000 7.200
33 31.530 500.000 7.400
34 31.820 515.000 7.600
35 32.110 530.000 7.800
36 32.390 545.000 8.000
37 32.680 560.000 8.200
38 32.970 575.000 8.400
39 33.250 590.000 8.600
40 620.090 605.000 8.800
EOF
