NAME: hfvrp_n050_m10_s01
CUSTOMERS: 50
VEHICLES: 10
NODE_COORD_SECTION
0 50.000 50.000
1 99.852 59.482
2 36.541 24.273
3 60.972 47.705
4 24.937 19.864
5 44.795 88.115
6 62.535 23.019
7 66.662 72.374
8 28.377 13.949
9 46.297 67.335
10 10.104 48.733
11 74.038 14.652
12 52.342 7.908
13 33.148 31.765
14 64.844 0.390
15 12.921 4.358
16 49.530 31.679
17 12.795 32.728
18 38.222 60.103
19 27.366 59.185
20 80.017 38.211
21 95.622 7.101
22 65.940 13.149
23 9.706 42.407
24 95.918 26.077
25 97.257 83.779
26 94.820 59.786
27 28.689 5.005
28 83.313 33.850
29 58.578 66.080
30 83.962 47.671
31 88.418 39.029
32 61.095 98.451
33 24.982 41.896
34 57.303 10.774
35 48.560 3.522
36 3.562 8.204
37 6.977 78.513
38 33.436 48.793
39 94.726 4.013
40 26.534 46.588
41 65.938 71.756
42 71.492 54.951
43 36.466 98.887
44 50.980 30.947
45 14.798 94.762
46 72.701 65.019
47 64.833 20.421
48 76.758 13.819
49 17.053 91.880
50 65.585 67.513
DEMAND_SECTION
0 0.000
1 8.000
2 4.000
3 2.000
4 3.000
5 8.000
6 7.000
7 5.000
8 5.000
9 10.000
10 3.000
11 5.000
12 2.000
13 8.000
14 1.000
15 2.000
16 10.000
17 10.000
18 6.000
19 2.000
20 3.000
21 5.000
22 7.000
23 3.000
24 8.000
25 5.000
26 6.000
27 2.000
28 3.000
29 8.000
30 1.000
31 8.000
32 6.000
33 8.000
34 8.000
35 10.000
36 10.000
37 9.000
38 6.000
39 3.000
40 3.000
41 1.000
42 4.000
43 3.000
44 7.000
45 10.000
46 1.000
47 2.000
48 3.000
49 9.000
50 4.000
PRIORITY_SECTION
0 0.000
1 1.000
2 0.000
3 2.000
4 0.000
5 0.000
6 0.000
7 0.000
8 0.000
9 0.000
10 0.000
11 0.000
12 2.000
13 0.000
14 0.000
15 2.000
16 5.000
17 2.000
18 0.000
19 5.000
20 2.000
21 1.000
22 1.000
23 2.000
24 1.000
25 1.000
26 0.000
27 0.000
28 5.000
29 1.000
30 1.000
31 0.000
32 5.000
33 0.000
34 0.000
35 0.000
36 1.000
37 0.000
38 2.000
39 5.000
40 1.000
41 0.000
42 2.000
43 0.000
44 0.000
45 5.000
46 0.000
47 5.000
48 0.000
49 0.000
50 0.000
VEHICLE_SECTION
1 21.360 20.000 1.000
2 22.550 35.000 1.200
3 23.730 50.000 1.400
4 24.920 65.000 1.600
5 26.110 80.000 1.800
6 27.290 95.000 2.000
7 28.480 110.000 2.200
8 29.670 125.000 2.400
9 30.850 140.000 2.600
10 198.410 155.000 2.800
EOF
