NAME: hfvrp_n015_m03_s01
CUSTOMERS: 15
VEHICLES: 3
NODE_COORD_SECTION
0 50.000 50.000
1 58.666 96.009
2 30.018 12.420
3 44.293 74.951
4 84.561 31.437
5 92.133 40.909
6 18.266 69.089
7 88.150 81.920
8 65.509 57.465
9 48.955 54.310
10 36.164 15.218
11 52.417 61.511
12 26.948 99.913
13 83.441 26.279
14 62.715 22.749
15 18.350 47.861
DEMAND_SECTION
0 0.000
1 6.000
2 1.000
3 5.000
4 10.000
5 8.000
6 9.000
7 8.000
8 9.000
9 3.000
10 1.000
11 3.000
12 1.000
13 6.000
14 4.000
15 3.000
PRIORITY_SECTION
0 0.000
1 0.000
2 5.000
3 5.000
4 0.000
5 0.000
6 1.000
7 0.000
8 0.000
9 2.000
10 5.000
11 5.000
12 2.000
13 1.000
14 1.000
15 2.000
VEHICLE_SECTION
1 20.530 20.000 1.000
2 25.670 35.000 1.200
3 76.630 50.000 1.400
EOF
