NAME: hfvrp_n075_m15_s05
CUSTOMERS: 75
VEHICLES: 15
NODE_COORD_SECTION
0 50.000 50.000
1 89.366 56.352
2 33.252 41.152
3 23.922 56.880
4 96.057 90.329
5 31.001 9.668
6 74.900 55.925
7 79.314 21.035
8 38.223 10.425
9 0.950 38.105
10 96.971 27.732
11 51.615 28.130
12 79.452 88.732
13 30.309 64.251
14 17.532 86.186
15 4.393 56.108
16 44.781 66.667
17 8.812 56.539
18 53.568 7.723
19 25.048 14.841
20 98.040 12.955
21 41.550 30.322
22 53.718 7.443
23 89.062 62.890
24 20.879 44.624
25 71.405 61.647
26 85.581 14.485
27 68.505 90.806
28 66.444 0.688
29 71.140 7.654
30 29.224 29.188
31 56.316 50.007
32 98.975 24.843
33 32.957 5.172
34 64.387 52.173
35 89.227 3.126
36 83.330 12.012
37 72.206 23.212
38 53.708 5.522
39 83.435 42.314
40 44.796 85.199
41 54.671 99.379
42 71.163 58.514
43 64.977 68.456
44 58.100 2.742
45 78.485 59.563
46 78.121 39.436
47 63.074 44.852
48 38.400 69.066
49 38.406 36.278
50 73.927 52.190
51 83.806 94.362
52 40.886 27.209
53 23.454 2.636
54 54.426 21.322
55 20.204 7.884
56 29.579 20.441
57 85.807 95.855
58 62.037 41.124
59 2.240 33.426
60 95.491 38.877
61 97.715 87.185
62 49.008 84.483
63 32.320 26.534
64 49.183 8.758
65 84.484 25.104
66 64.548 15.121
67 30.791 9.903
68 92.542 42.960
69 97.469 8.571
70 16.165 24.210
71 75.981 0.225
72 0.607 20.840
73 3.871 51.051
74 18.757 52.784
75 92.996 84.923
DEMAND_SECTION
0 0.000
1 10.000
2 3.000
3 1.000
4 2.000
5 10.000
6 7.000
7 8.000
8 9.000
9 10.000
10 9.000
11 4.000
12 2.000
13 8.000
14 5.000
15 4.000
16 6.000
17 7.000
18 5.000
19 7.000
20 5.000
21 2.000
22 6.000
23 4.000
24 2.000
25 3.000
26 8.000
27 3.000
28 8.000
29 4.000
30 4.000
31 7.000
32 6.000
33 6.000
34 6.000
35 10.000
36 6.000
37 6.000
38 7.000
39 7.000
40 6.000
41 9.000
42 10.000
43 6.000
44 6.000
45 8.000
46 2.000
47 4.000
48 7.000
49 1.000
50 5.000
51 7.000
52 3.000
53 9.000
54 4.000
55 3.000
56 3.000
57 9.000
58 6.000
59 10.000
60 9.000
61 9.000
62 1.000
63 1.000
64 7.000
65 1.000
66 5.000
67 1.000
68 4.000
69 3.000
70 6.000
71 4.000
72 1.000
73 6.000
74 5.000
75 4.000
PRIORITY_SECTION
0 0.000
1 0.000
2 0.000
3 5.000
4 0.000
5 5.000
6 0.000
7 0.000
8 0.000
9 1.000
10 0.000
11 0.000
12 5.000
13 5.000
14 1.000
15 0.000
16 5.000
17 0.000
18 2.000
19 0.000
20 0.000
21 1.000
22 0.000
23 2.000
24 0.000
25 0.000
26 1.000
27 2.000
28 1.000
29 0.000
30 0.000
31 1.000
32 2.000
33 0.000
34 0.000
35 0.000
36 5.000
37 1.000
38 0.000
39 0.000
40 2.000
41 0.000
42 0.000
43 0.000
44 0.000
45 1.000
46 5.000
47 1.000
48 0.000
49 0.000
50 0.000
51 1.000
52 5.000
53 0.000
54 1.000
55 1.000
56 0.000
57 5.000
58 0.000
59 5.000
60 0.000
61 5.000
62 0.000
63 1.000
64 2.000
65 5.000
66 0.000
67 0.000
68 0.000
69 0.000
70 5.000
71 1.000
72 1.000
73 5.000
74 0.000
75 1.000
VEHICLE_SECTION
1 21.970 20.000 1.000
2 22.760 35.000 1.200
3 23.540 50.000 1.400
4 24.330 65.000 1.600
5 25.110 80.000 1.800
6 25.900 95.000 2.000
7 26.680 110.000 2.200
8 27.470 125.000 2.400
9 28.250 140.000 2.600
10 29.040 155.000 2.800
11 29.820 170.000 3.000
12 30.610 185.000 3.200
13 31.390 200.000 3.400
14 32.180 215.000 3.600
15 244.870 230.000 3.800
EOF
