NAME: hfvrp_n150_m30_s02
CUSTOMERS: 150
VEHICLES: 30
NODE_COORD_SECTION
0 50.000 50.000
1 67.167 67.575
2 83.271 91.880
3 85.603 30.151
4 84.071 6.950
5 80.166 80.916
6 59.712 60.174
7 36.945 61.834
8 34.000 8.104
9 44.220 18.482
10 27.993 97.011
11 91.406 14.863
12 33.009 79.301
13 53.551 98.715
14 40.524 59.113
15 88.599 13.956
16 37.755 4.511
17 2.955 98.333
18 76.486 20.287
19 64.967 3.452
20 36.108 90.484
21 86.351 82.257
22 94.660 42.219
23 56.453 46.706
24 87.409 20.740
25 28.084 40.567
26 16.496 67.898
27 80.362 98.825
28 9.847 32.608
29 34.630 96.653
30 94.291 19.546
31 21.453 51.292
32 98.798 91.646
33 29.237 46.814
34 65.429 84.101
35 69.871 50.600
36 56.436 25.821
37 87.965 1.466
38 11.405 21.717
39 51.872 44.404
40 47.095 45.738
41 62.089 55.137
42 19.472 27.822
43 34.736 95.346
44 99.061 21.170
45 98.044 2.062
46 51.246 0.870
47 28.178 38.722
48 61.887 1.809
49 3.044 28.450
50 37.756 36.038
51 81.818 47.931
52 43.444 74.561
53 84.355 72.762
54 40.866 42.443
55 65.541 30.015
56 45.978 87.484
57 66.171 23.787
58 18.223 98.060
59 44.573 39.986
60 91.869 73.302
61 72.937 64.553
62 9.517 77.754
63 5.648 6.331
64 51.634 22.630
65 75.376 17.697
66 78.636 98.494
67 80.158 93.317
68 74.314 65.677
69 56.173 72.954
70 51.343 56.890
71 21.307 46.729
72 14.754 62.316
73 9.895 86.246
74 79.911 95.198
75 38.270 49.357
76 13.529 20.908
77 18.492 49.548
78 82.330 47.785
79 12.087 77.489
80 52.337 82.544
81 31.690 55.510
82 7.201 35.550
83 72.002 33.354
84 87.704 21.745
85 53.597 25.276
86 35.570 43.162
87 54.856 66.385
88 27.569 93.196
89 92.277 71.787
90 50.167 61.384
91 27.789 61.008
92 3.964 92.066
93 98.327 93.948
94 41.720 83.521
95 80.292 33.849
96 38.202 29.486
97 99.228 61.073
98 79.536 53.438
99 56.922 10.163
100 43.951 54.301
101 15.516 58.006
102 46.567 3.436
103 10.456 98.301
104 50.155 0.835
105 90.008 37.098
106 16.899 44.997
107 64.405 46.094
108 84.541 18.287
109 4.383 90.005
110 8.644 43.023
111 87.219 54.610
112 46.317 21.870
113 66.882 82.957
114 26.705 80.616
115 32.320 86.244
116 57.978 57.684
117 16.454 52.424
118 5.417 11.289
119 71.953 13.881
120 31.031 73.285
121 24.906 92.916
122 26.709 69.421
123 34.803 97.358
124 8.408 40.270
125 91.561 90.776
126 27.929 79.532
127 44.097 61.906
128 53.208 51.124
129 39.236 98.091
130 94.162 47.060
131 62.038 59.287
132 78.204 1.362
133 34.781 1.524
134 80.378 4.102
135 63.939 0.702
136 8.005 53.857
137 64.892 69.402
138 3.259 13.465
139 30.502 37.609
140 60.783 52.201
141 90.467 97.541
142 70.547 16.251
143 3.696 40.419
144 69.968 49.718
145 16.804 77.046
146 53.167 75.997
147 51.869 56.908
148 19.467 11.513
149 79.085 87.932
150 49.894 59.105
DEMAND_SECTION
0 0.000
1 4.000
2 5.000
3 4.000
4 3.000
5 3.000
6 9.000
7 1.000
8 6.000
9 1.000
10 4.000
11 10.000
12 1.000
13 5.000
14 4.000
15 6.000
16 9.000
17 7.000
18 3.000
19 7.000
20 3.000
21 7.000
22 7.000
23 7.000
24 9.000
25 6.000
26 10.000
27 7.000
28 8.000
29 1.000
30 9.000
31 3.000
32 9.000
33 1.000
34 10.000
35 4.000
36 8.000
37 8.000
38 8.000
39 2.000
40 8.000
41 4.000
42 1.000
43 3.000
44 4.000
45 4.000
46 8.000
47 8.000
48 9.000
49 4.000
50 7.000
51 3.000
52 4.000
53 1.000
54 6.000
55 5.000
56 2.000
57 8.000
58 4.000
59 5.000
60 9.000
61 1.000
62 2.000
63 4.000
64 2.000
65 5.000
66 2.000
67 2.000
68 4.000
69 8.000
70 6.000
71 7.000
72 4.000
73 1.000
74 4.000
75 7.000
76 5.000
77 3.000
78 7.000
79 5.000
80 3.000
81 8.000
82 7.000
83 1.000
84 1.000
85 10.000
86 7.000
87 10.000
88 5.000
89 1.000
90 7.000
91 8.000
92 4.000
93 1.000
94 3.000
95 7.000
96 7.000
97 9.000
98 5.000
99 6.000
100 3.000
101 7.000
102 5.000
103 7.000
104 9.000
105 2.000
106 1.000
107 2.000
108 9.000
109 3.000
110 1.000
111 7.000
112 8.000
113 4.000
114 8.000
115 1.000
116 3.000
117 7.000
118 9.000
119 8.000
120 7.000
121 5.000
122 5.000
123 6.000
124 1.000
125 8.000
126 3.000
127 10.000
128 10.000
129 4.000
130 9.000
131 9.000
132 10.000
133 1.000
134 7.000
135 8.000
136 4.000
137 10.000
138 9.000
139 7.000
140 8.000
141 4.000
142 5.000
143 5.000
144 6.000
145 6.000
146 1.000
147 5.000
148 8.000
149 3.000
150 1.000
PRIORITY_SECTION
0 0.000
1 0.000
2 1.000
3 0.000
4 0.000
5 1.000
6 0.000
7 0.000
8 0.000
9 5.000
10 5.000
11 1.000
12 0.000
13 0.000
14 1.000
15 0.000
16 1.000
17 0.000
18 1.000
19 2.000
20 1.000
21 0.000
22 2.000
23 5.000
24 2.000
25 0.000
26 0.000
27 2.000
28 1.000
29 2.000
30 5.000
31 2.000
32 0.000
33 0.000
34 5.000
35 0.000
36 0.000
37 5.000
38 0.000
39 0.000
40 0.000
41 5.000
42 5.000
43 2.000
44 2.000
45 0.000
46 5.000
47 1.000
48 2.000
49 0.000
50 0.000
51 1.000
52 0.000
53 2.000
54 5.000
55 1.000
56 0.000
57 0.000
58 0.000
59 2.000
60 2.000
61 0.000
62 0.000
63 0.000
64 0.000
65 0.000
66 0.000
67 0.000
68 2.000
69 0.000
70 2.000
71 0.000
72 0.000
73 2.000
74 1.000
75 2.000
76 0.000
77 0.000
78 0.000
79 1.000
80 0.000
81 5.000
82 0.000
83 2.000
84 1.000
85 1.000
86 0.000
87 0.000
88 2.000
89 0.000
90 0.000
91 5.000
92 0.000
93 5.000
94 2.000
95 2.000
96 0.000
97 0.000
98 1.000
99 1.000
100 0.000
101 5.000
102 2.000
103 0.000
104 5.000
105 1.000
106 5.000
107 0.000
108 0.000
109 5.000
110 0.000
111 0.000
112 0.000
113 5.000
114 2.000
115 0.000
116 5.000
117 0.000
118 0.000
119 1.000
120 1.000
121 0.000
122 0.000
123 2.000
124 0.000
125 5.000
126 5.000
127 0.000
128 2.000
129 0.000
130 1.000
131 0.000
132 5.000
133 0.000
134 5.000
135 0.000
136 1.000
137 0.000
138 2.000
139 0.000
140 1.000
141 5.000
142 0.000
143 0.000
144 0.000
145 0.000
146 0.000
147 0.000
148 0.000
149 0.000
150 0.000
VEHICLE_SECTION
1 21.440 20.000 1.000
2 21.810 35.000 1.200
3 22.180 50.000 1.400
4 22.550 65.000 1.600
5 22.920 80.000 1.800
6 23.290 95.000 2.000
7 23.660 110.000 2.200
8 24.030 125.000 2.400
9 24.400 140.000 2.600
10 24.770 155.000 2.800
11 25.140 170.000 3.000
12 25.510 185.000 3.200
13 25.880 200.000 3.400
14 26.250 215.000 3.600
15 26.620 230.000 3.800
16 26.980 245.000 4.000
17 27.350 260.000 4.200
18 27.720 275.000 4.400
19 28.090 290.000 4.600
20 28.460 305.000 4.800
21 28.830 320.000 5.000
22 29.200 335.000 5.200
23 29.570 350.000 5.400
24 29.940 365.000 5.600
25 30.310 380.000 5.800
26 30.680 395.000 6.000
27 31.050 410.000 6.200
28 31.420 425.000 6.400
29 31.790 440.000 6.600
30 495.410 455.000 6.800
EOF
