NAME: hfvrp_n100_m20_s05
CUSTOMERS: 100
VEHICLES: 20
NODE_COORD_SECTION
0 50.000 50.000
1 61.613 58.948
2 36.854 38.788
3 31.957 42.901
4 98.642 68.859
5 20.450 47.208
6 55.900 11.816
7 85.195 50.156
8 18.948 70.844
9 50.317 49.501
10 31.242 80.431
11 58.027 59.660
12 26.637 62.838
13 69.649 32.399
14 51.288 7.053
15 67.265 63.195
16 50.394 88.437
17 99.378 18.139
18 61.095 7.082
19 94.682 89.638
20 64.000 92.084
21 79.729 92.751
22 30.196 72.224
23 13.478 5.602
24 86.712 96.320
25 71.596 22.079
26 98.707 20.987
27 92.798 77.354
28 73.362 8.518
29 94.879 61.427
30 22.767 49.772
31 62.656 34.055
32 57.584 94.503
33 11.135 84.300
34 76.806 80.984
35 23.848 65.736
36 79.430 31.390
37 92.706 86.887
38 87.822 43.714
39 49.463 14.564
40 28.813 31.575
41 30.577 96.239
42 8.232 66.847
43 22.119 25.635
44 23.372 13.006
45 45.499 1.605
46 20.686 13.260
47 41.833 72.063
48 1.555 4.164
49 94.622 12.322
50 92.845 61.281
51 0.161 26.138
52 9.782 43.882
53 32.096 77.847
54 61.455 43.261
55 57.422 92.084
56 82.253 54.291
57 33.637 57.345
58 52.771 48.235
59 16.226 77.422
60 30.847 99.929
61 96.690 15.543
62 6.474 36.027
63 16.570 18.579
64 55.140 20.853
65 13.520 21.551
66 13.579 10.356
67 83.537 74.162
68 25.401 96.317
69 68.705 86.587
70 21.502 68.595
71 10.093 45.238
72 30.239 28.790
73 97.762 16.116
74 83.971 41.337
75 32.716 17.154
76 56.550 21.445
77 81.266 54.879
78 62.609 42.661
79 4.346 95.517
80 50.448 62.160
81 0.407 24.060
82 45.396 17.754
83 68.906 40.906
84 40.195 29.766
85 97.551 78.076
86 80.651 5.422
87 74.529 93.687
88 37.007 70.501
89 91.096 4.218
90 15.446 23.755
91 50.003 67.540
92 46.126 55.243
93 59.930 58.736
94 58.475 91.057
95 80.126 6.578
96 87.265 85.536
97 39.348 93.743
98 30.106 81.329
99 32.548 80.481
100 98.809 58.432
DEMAND_SECTION
0 0.000
1 4.000
2 3.000
3 1.000
4 9.000
5 7.000
6 10.000
7 8.000
8 3.000
9 9.000
10 5.000
11 4.000
12 7.000
13 5.000
14 5.000
15 1.000
16 8.000
17 6.000
18 4.000
19 3.000
20 8.000
21 3.000
22 6.000
23 1.000
24 5.000
25 10.000
26 6.000
27 3.000
28 2.000
29 9.000
30 8.000
31 3.000
32 9.000
33 1.000
34 9.000
35 6.000
36 8.000
37 1.000
38 9.000
39 6.000
40 4.000
41 3.000
42 5.000
43 3.000
44 1.000
45 7.000
46 2.000
47 1.000
48 6.000
49 4.000
50 7.000
51 5.000
52 2.000
53 4.000
54 10.000
55 9.000
56 9.000
57 4.000
58 6.000
59 9.000
60 4.000
61 6.000
62 3.000
63 6.000
64 8.000
65 10.000
66 2.000
67 6.000
68 3.000
69 1.000
70 6.000
71 5.000
72 10.000
73 7.000
74 7.000
75 10.000
76 4.000
77 3.000
78 6.000
79 9.000
80 3.000
81 5.000
82 8.000
83 7.000
84 3.000
85 1.000
86 10.000
87 5.000
88 1.000
89 7.000
90 9.000
91 7.000
92 4.000
93 5.000
94 2.000
95 3.000
96 10.000
97 3.000
98 4.000
99 3.000
100 5.000
PRIORITY_SECTION
0 0.000
1 5.000
2 2.000
3 0.000
4 5.000
5 2.000
6 1.000
7 5.000
8 0.000
9 2.000
10 1.000
11 0.000
12 2.000
13 0.000
14 0.000
15 1.000
16 0.000
17 1.000
18 0.000
19 5.000
20 0.000
21 0.000
22 1.000
23 5.000
24 0.000
25 5.000
26 1.000
27 0.000
28 0.000
29 0.000
30 0.000
31 2.000
32 5.000
33 0.000
34 1.000
35 0.000
36 2.000
37 0.000
38 0.000
39 5.000
40 0.000
41 0.000
42 0.000
43 0.000
44 0.000
45 5.000
46 0.000
47 0.000
48 5.000
49 0.000
50 5.000
51 2.000
52 1.000
53 0.000
54 1.000
55 0.000
56 2.000
57 5.000
58 0.000
59 0.000
60 2.000
61 1.000
62 0.000
63 2.000
64 0.000
65 0.000
66 5.000
67 0.000
68 1.000
69 2.000
70 1.000
71 5.000
72 0.000
73 1.000
74 5.000
75 0.000
76 0.000
77 1.000
78 2.000
79 2.000
80 2.000
81 0.000
82 0.000
83 0.000
84 0.000
85 0.000
86 0.000
87 0.000
88 0.000
89 5.000
90 2.000
91 0.000
92 0.000
93 5.000
94 0.000
95 2.000
96 0.000
97 0.000
98 0.000
99 2.000
100 0.000
VEHICLE_SECTION
1 21.480 20.000 1.000
2 22.050 35.000 1.200
3 22.610 50.000 1.400
4 23.180 65.000 1.600
5 23.740 80.000 1.800
6 24.310 95.000 2.000
7 24.870 110.000 2.200
8 25.440 125.000 2.400
9 26.000 140.000 2.600
10 26.570 155.000 2.800
11 27.130 170.000 3.000
12 27.700 185.000 3.200
13 28.260 200.000 3.400
14 28.830 215.000 3.600
15 29.390 230.000 3.800
16 29.960 245.000 4.000
17 30.520 260.000 4.200
18 31.090 275.000 4.400
19 31.650 290.000 4.600
20 344.660 305.000 4.800
EOF
