NAME: hfvrp_n020_m04_s04
CUSTOMERS: 20
VEHICLES: 4
NODE_COORD_SECTION
0 50.000 50.000
1 18.107 28.315
2 71.125 59.321
3 97.231 47.553
4 1.529 74.621
5 8.822 7.903
6 6.637 52.910
7 39.587 27.347
8 88.493 5.116
9 32.760 13.544
10 19.880 79.266
11 43.198 64.924
12 5.033 3.946
13 49.100 54.335
14 29.118 32.145
15 81.535 18.499
16 71.207 21.679
17 35.407 41.452
18 95.014 68.427
19 40.091 32.830
20 25.926 16.425
DEMAND_SECTION
0 0.000
1 9.000
2 9.000
3 7.000
4 8.000
5 4.000
6 1.000
7 3.000
8 5.000
9 2.000
10 9.000
11 7.000
12 2.000
13 10.000
14 4.000
15 10.000
16 10.000
17 8.000
18 6.000
19 6.000
20 8.000
PRIORITY_SECTION
0 0.000
1 2.000
2 0.000
3 2.000
4 0.000
5 2.000
6 5.000
7 0.000
8 0.000
9 5.000
10 0.000
11 0.000
12 0.000
13 1.000
14 2.000
15 0.000
16 2.000
17 0.000
18 2.000
19 0.000
20 1.000
VEHICLE_SECTION
1 25.600 20.000 1.000
2 29.870 35.000 1.200
3 34.130 50.000 1.400
4 114.670 65.000 1.600
EOF
