NAME: hfvrp_n020_m04_s05
CUSTOMERS: 20
VEHICLES: 4
NODE_COORD_SECTION
0 50.000 50.000
1 23.761 91.441
2 32.108 16.006
3 53.874 27.345
4 42.063 8.155
5 14.213 34.095
6 79.319 66.970
7 16.245 87.166
8 39.848 29.505
9 22.761 44.510
10 65.038 52.665
11 5.171 28.215
12 10.157 80.381
13 28.086 83.656
14 34.234 91.698
15 46.167 88.489
16 44.206 18.454
17 85.595 68.824
18 2.206 62.815
19 49.949 77.322
20 92.700 2.699
DEMAND_SECTION
0 0.000
1 5.000
2 10.000
3 8.000
4 7.000
5 3.000
6 3.000
7 5.000
8 1.000
9 4.000
10 1.000
11 3.000
12 8.000
13 2.000
14 4.000
15 5.000
16 9.000
17 2.000
18 4.000
19 2.000
20 3.000
PRIORITY_SECTION
0 0.000
1 0.000
2 2.000
3 2.000
4 0.000
5 1.000
6 0.000
7 2.000
8 0.000
9 0.000
10 1.000
11 0.000
12 0.000
13 2.000
14 0.000
15 1.000
16 5.000
17 5.000
18 1.000
19 0.000
20 1.000
VEHICLE_SECTION
1 17.800 20.000 1.000
2 20.770 35.000 1.200
3 23.730 50.000 1.400
4 79.730 65.000 1.600
EOF
