NAME: hfvrp_n150_m30_s01
CUSTOMERS: 150
VEHICLES: 30
NODE_COORD_SECTION
0 50.000 50.000
1 83.805 73.088
2 99.478 75.743
3 2.631 44.147
4 55.392 6.065
5 50.229 65.523
6 73.503 18.219
7 7.414 64.593
8 62.463 99.791
9 13.440 61.858
10 51.178 80.689
11 11.099 36.547
12 79.537 7.889
13 85.444 51.878
14 28.102 98.631
15 25.871 15.380
16 1.518 53.191
17 73.535 70.248
18 2.669 46.988
19 4.389 64.167
20 3.255 17.914
21 51.544 27.487
22 49.530 1.191
23 12.535 58.361
24 66.893 43.041
25 46.854 0.010
26 27.145 90.239
27 93.312 69.533
28 45.443 81.944
29 62.344 8.261
30 61.290 59.951
31 20.328 10.270
32 42.616 7.523
33 54.850 75.560
34 54.463 20.240
35 77.420 85.420
36 56.138 30.706
37 22.275 68.707
38 79.381 98.111
39 5.918 44.706
40 26.642 58.422
41 83.055 80.873
42 91.644 37.043
43 73.469 74.132
44 23.718 92.821
45 79.721 98.627
46 78.718 28.426
47 54.975 43.904
48 87.734 65.769
49 24.013 10.180
50 6.386 15.220
51 29.860 63.045
52 68.043 44.571
53 29.995 35.803
54 90.681 35.697
55 78.463 14.775
56 9.483 89.794
57 71.522 66.929
58 92.949 83.682
59 77.091 1.094
60 31.384 76.373
61 53.840 38.838
62 73.962 49.640
63 23.930 79.955
64 70.836 84.517
65 38.135 40.809
66 80.135 24.219
67 7.982 79.755
68 84.575 73.206
69 36.530 86.241
70 16.554 5.622
71 89.707 45.856
72 66.158 60.075
73 96.961 61.560
74 17.442 42.379
75 93.062 56.418
76 29.529 49.126
77 13.693 90.405
78 66.088 10.805
79 14.507 76.265
80 35.099 86.856
81 79.417 38.274
82 15.234 71.616
83 82.140 91.612
84 45.614 9.132
85 70.756 59.485
86 52.100 48.414
87 56.678 93.941
88 15.622 14.954
89 6.995 72.638
90 32.851 8.586
91 52.649 58.912
92 93.097 71.982
93 13.631 89.102
94 65.578 15.985
95 61.372 9.985
96 19.786 14.206
97 60.655 23.354
98 3.496 85.341
99 42.442 97.034
100 90.528 94.909
101 10.802 79.633
102 27.682 48.786
103 63.748 75.296
104 27.546 41.862
105 15.293 94.268
106 43.973 66.478
107 77.727 75.573
108 98.780 51.702
109 52.426 32.982
110 82.515 63.476
111 72.419 78.313
112 37.120 32.960
113 83.003 42.506
114 80.060 58.535
115 27.535 11.392
116 4.557 24.334
117 56.864 8.360
118 59.161 47.700
119 90.624 14.938
120 43.001 65.435
121 11.072 97.369
122 75.150 83.554
123 44.884 97.674
124 82.762 86.127
125 76.612 19.835
126 72.933 6.760
127 99.368 17.511
128 62.716 27.097
129 49.775 58.513
130 21.564 41.726
131 82.250 25.476
132 74.702 14.854
133 19.972 56.391
134 86.757 57.356
135 47.370 52.284
136 61.057 47.367
137 29.623 71.984
138 97.997 26.243
139 58.211 7.799
140 60.697 54.568
141 11.738 36.568
142 36.893 77.079
143 89.685 49.234
144 1.435 41.476
145 20.944 44.713
146 51.862 70.806
147 78.362 83.777
148 76.330 82.527
149 17.592 40.763
150 98.716 50.538
DEMAND_SECTION
0 0.000
1 6.000
2 8.000
3 8.000
4 4.000
5 4.000
6 5.000
7 6.000
8 3.000
9 8.000
10 10.000
11 8.000
12 7.000
13 1.000
14 1.000
15 7.000
16 9.000
17 9.000
18 6.000
19 6.000
20 5.000
21 2.000
22 1.000
23 2.000
24 3.000
25 6.000
26 4.000
27 10.000
28 8.000
29 2.000
30 4.000
31 9.000
32 6.000
33 7.000
34 6.000
35 3.000
36 9.000
37 10.000
38 5.000
39 3.000
40 9.000
41 7.000
42 6.000
43 5.000
44 6.000
45 1.000
46 1.000
47 3.000
48 5.000
49 1.000
50 2.000
51 10.000
52 5.000
53 10.000
54 3.000
55 8.000
56 2.000
57 9.000
58 2.000
59 4.000
60 8.000
61 5.000
62 7.000
63 10.000
64 2.000
65 7.000
66 3.000
67 10.000
68 7.000
69 6.000
70 3.000
71 1.000
72 9.000
73 2.000
74 10.000
75 8.000
76 1.000
77 2.000
78 5.000
79 9.000
80 2.000
81 3.000
82 1.000
83 6.000
84 1.000
85 5.000
86 8.000
87 3.000
88 7.000
89 4.000
90 9.000
91 1.000
92 1.000
93 10.000
94 9.000
95 3.000
96 3.000
97 5.000
98 1.000
99 9.000
100 3.000
101 7.000
102 5.000
103 6.000
104 3.000
105 10.000
106 2.000
107 7.000
108 2.000
109 7.000
110 7.000
111 5.000
112 10.000
113 5.000
114 7.000
115 6.000
116 10.000
117 1.000
118 2.000
119 9.000
120 6.000
121 1.000
122 3.000
123 6.000
124 5.000
125 8.000
126 3.000
127 5.000
128 6.000
129 3.000
130 1.000
131 3.000
132 9.000
133 3.000
134 7.000
135 3.000
136 3.000
137 3.000
138 9.000
139 4.000
140 4.000
141 6.000
142 7.000
143 5.000
144 7.000
145 9.000
146 4.000
147 1.000
148 5.000
149 4.000
150 2.000
PRIORITY_SECTION
0 0.000
1 5.000
2 0.000
3 0.000
4 0.000
5 0.000
6 5.000
7 1.000
8 2.000
9 2.000
10 1.000
11 5.000
12 0.000
13 1.000
14 5.000
15 0.000
16 5.000
17 1.000
18 5.000
19 1.000
20 0.000
21 0.000
22 0.000
23 0.000
24 0.000
25 0.000
26 0.000
27 0.000
28 2.000
29 2.000
30 1.000
31 5.000
32 0.000
33 0.000
34 2.000
35 0.000
36 0.000
37 0.000
38 5.000
39 0.000
40 1.000
41 0.000
42 5.000
43 0.000
44 1.000
45 0.000
46 0.000
47 0.000
48 2.000
49 2.000
50 0.000
51 1.000
52 0.000
53 5.000
54 1.000
55 1.000
56 0.000
57 0.000
58 2.000
59 0.000
60 0.000
61 0.000
62 0.000
63 5.000
64 5.000
65 0.000
66 1.000
67 2.000
68 0.000
69 2.000
70 0.000
71 0.000
72 2.000
73 0.000
74 0.000
75 0.000
76 0.000
77 0.000
78 5.000
79 5.000
80 0.000
81 1.000
82 0.000
83 1.000
84 0.000
85 0.000
86 2.000
87 0.000
88 0.000
89 0.000
90 5.000
91 2.000
92 0.000
93 2.000
94 0.000
95 0.000
96 5.000
97 0.000
98 1.000
99 0.000
100 2.000
101 0.000
102 1.000
103 5.000
104 0.000
105 1.000
106 0.000
107 1.000
108 1.000
109 2.000
110 1.000
111 2.000
112 0.000
113 0.000
114 2.000
115 2.000
116 2.000
117 1.000
118 5.000
119 0.000
120 0.000
121 0.000
122 0.000
123 5.000
124 1.000
125 0.000
126 5.000
127 0.000
128 2.000
129 0.000
130 0.000
131 1.000
132 2.000
133 2.000
134 2.000
135 1.000
136 0.000
137 2.000
138 5.000
139 5.000
140 5.000
141 0.000
142 0.000
143 2.000
144 0.000
145 0.000
146 0.000
147 5.000
148 0.000
149 2.000
150 0.000
VEHICLE_SECTION
1 20.930 20.000 1.000
2 21.290 35.000 1.200
3 21.660 50.000 1.400
4 22.020 65.000 1.600
5 22.380 80.000 1.800
6 22.740 95.000 2.000
7 23.100 110.000 2.200
8 23.460 125.000 2.400
9 23.820 140.000 2.600
10 24.180 155.000 2.800
11 24.540 170.000 3.000
12 24.900 185.000 3.200
13 25.260 200.000 3.400
14 25.630 215.000 3.600
15 25.990 230.000 3.800
16 26.350 245.000 4.000
17 26.710 260.000 4.200
18 27.070 275.000 4.400
19 27.430 290.000 4.600
20 27.790 305.000 4.800
21 28.150 320.000 5.000
22 28.510 335.000 5.200
23 28.870 350.000 5.400
24 29.230 365.000 5.600
25 29.600 380.000 5.800
26 29.960 395.000 6.000
27 30.320 410.000 6.200
28 30.680 425.000 6.400
29 31.040 440.000 6.600
30 483.760 455.000 6.800
EOF
