NAME: hfvrp_n075_m15_s04
CUSTOMERS: 75
VEHICLES: 15
NODE_COORD_SECTION
0 50.000 50.000
1 50.036 30.607
2 10.535 48.350
3 92.690 96.891
4 12.601 2.096
5 24.899 83.738
6 8.694 2.803
7 27.369 91.747
8 75.653 25.867
9 53.206 74.478
10 22.189 88.071
11 30.569 86.651
12 55.923 72.871
13 24.420 28.347
14 81.547 95.262
15 72.755 90.784
16 98.933 85.065
17 31.511 25.374
18 30.683 29.969
19 25.579 12.067
20 13.666 72.802
21 48.099 48.610
22 28.858 46.691
23 83.394 33.823
24 83.495 3.801
25 56.550 97.603
26 35.101 83.170
27 66.640 22.564
28 44.282 60.865
29 55.605 24.560
30 48.526 71.731
31 20.967 64.420
32 99.836 85.751
33 4.027 74.771
34 0.968 98.253
35 91.118 19.338
36 99.323 32.245
37 7.714 65.466
38 58.239 13.381
39 3.119 83.623
40 96.074 5.047
41 87.947 82.646
42 35.202 71.440
43 5.257 98.087
44 58.538 24.435
45 63.865 82.603
46 58.520 44.508
47 1.219 27.616
48 0.064 94.639
49 46.864 95.458
50 32.654 83.883
51 43.069 86.148
52 6.905 56.592
53 53.512 82.354
54 68.849 77.725
55 92.300 6.254
56 47.601 49.998
57 9.953 60.833
58 82.537 34.715
59 97.161 89.366
60 79.528 49.632
61 93.149 44.163
62 72.738 62.442
63 4.285 24.125
64 56.215 92.920
65 48.198 75.603
66 12.797 56.637
67 75.923 75.695
68 41.984 59.500
69 27.300 8.079
70 38.365 88.138
71 54.715 57.558
72 46.058 48.609
73 66.866 99.604
74 34.339 95.190
75 55.265 6.519
DEMAND_SECTION
0 0.000
1 2.000
2 3.000
3 3.000
4 1.000
5 9.000
6 6.000
7 6.000
8 4.000
9 1.000
10 10.000
11 8.000
12 1.000
13 9.000
14 7.000
15 7.000
16 3.000
17 3.000
18 9.000
19 4.000
20 5.000
21 7.000
22 6.000
23 9.000
24 9.000
25 3.000
26 1.000
27 6.000
28 9.000
29 2.000
30 5.000
31 5.000
32 6.000
33 8.000
34 8.000
35 9.000
36 8.000
37 8.000
38 3.000
39 6.000
40 1.000
41 2.000
42 4.000
43 2.000
44 8.000
45 9.000
46 8.000
47 6.000
48 8.000
49 4.000
50 9.000
51 4.000
52 3.000
53 7.000
54 9.000
55 5.000
56 2.000
57 3.000
58 1.000
59 7.000
60 10.000
61 7.000
62 4.000
63 2.000
64 3.000
65 3.000
66 9.000
67 6.000
68 3.000
69 9.000
70 6.000
71 3.000
72 2.000
73 2.000
74 8.000
75 4.000
PRIORITY_SECTION
0 0.000
1 0.000
2 1.000
3 1.000
4 0.000
5 0.000
6 0.000
7 0.000
8 5.000
9 0.000
10 0.000
11 1.000
12 1.000
13 0.000
14 5.000
15 0.000
16 2.000
17 5.000
18 2.000
19 0.000
20 1.000
21 5.000
22 2.000
23 0.000
24 5.000
25 5.000
26 0.000
27 5.000
28 2.000
29 0.000
30 5.000
31 0.000
32 0.000
33 2.000
34 2.000
35 0.000
36 2.000
37 0.000
38 0.000
39 1.000
40 5.000
41 2.000
42 5.000
43 0.000
44 0.000
45 5.000
46 0.000
47 0.000
48 5.000
49 1.000
50 0.000
51 0.000
52 5.000
53 0.000
54 1.000
55 0.000
56 2.000
57 0.000
58 2.000
59 5.000
60 0.000
61 0.000
62 0.000
63 0.000
64 5.000
65 0.000
66 0.000
67 1.000
68 1.000
69 0.000
70 1.000
71 0.000
72 0.000
73 2.000
74 0.000
75 0.000
VEHICLE_SECTION
1 21.440 20.000 1.000
2 22.210 35.000 1.200
3 22.970 50.000 1.400
4 23.740 65.000 1.600
5 24.500 80.000 1.800
6 25.270 95.000 2.000
7 26.030 110.000 2.200
8 26.800 125.000 2.400
9 27.570 140.000 2.600
10 28.330 155.000 2.800
11 29.100 170.000 3.000
12 29.860 185.000 3.200
13 30.630 200.000 3.400
14 31.390 215.000 3.600
15 238.910 230.000 3.800
EOF
