NAME: hfvrp_n150_m30_s05
CUSTOMERS: 150
VEHICLES: 30
NODE_COORD_SECTION
0 50.000 50.000
1 82.132 61.064
2 72.667 80.616
3 36.283 4.823
4 52.509 42.477
5 29.144 13.050
6 75.086 62.949
7 64.745 78.200
8 29.639 47.498
9 94.148 79.792
10 73.607 83.578
11 26.799 94.955
12 78.870 8.140
13 96.554 35.240
14 9.203 77.906
15 39.182 40.669
16 70.665 66.500
17 83.433 63.018
18 1.841 26.374
19 85.999 22.106
20 97.900 89.875
21 38.957 48.636
22 97.328 58.132
23 44.523 24.218
24 90.605 36.332
25 45.147 3.401
26 83.655 98.211
27 87.629 90.702
28 4.167 30.815
29 53.517 46.146
30 1.150 24.056
31 59.776 13.504
32 58.747 42.562
33 40.269 39.874
34 47.829 89.035
35 75.910 34.802
36 37.816 35.065
37 39.863 63.269
38 14.860 7.199
39 93.503 76.441
40 62.696 76.082
41 72.344 35.512
42 90.211 2.160
43 76.048 87.524
44 61.858 48.720
45 5.591 82.894
46 46.449 69.518
47 42.707 32.611
48 98.794 81.244
49 20.708 66.957
50 12.647 74.347
51 97.611 78.772
52 11.259 21.306
53 56.725 44.899
54 13.821 63.832
55 51.169 10.971
56 15.057 91.508
57 10.749 55.216
58 47.957 11.898
59 42.238 84.747
60 16.723 62.615
61 97.446 25.924
62 43.547 70.176
63 85.006 61.726
64 37.480 32.843
65 68.573 5.130
66 1.256 49.885
67 68.650 35.181
68 67.337 66.673
69 94.805 43.708
70 81.409 63.277
71 62.308 93.083
72 81.167 45.624
73 48.437 99.342
74 45.603 59.214
75 41.861 46.024
76 97.077 15.935
77 31.129 0.529
78 78.578 54.128
79 99.157 38.654
80 6.322 61.571
81 11.190 63.869
82 79.620 46.940
83 74.063 95.917
84 36.401 22.941
85 16.715 85.688
86 8.339 49.519
87 74.710 87.257
88 27.705 50.382
89 82.655 61.352
90 79.076 81.842
91 67.889 79.090
92 65.166 83.419
93 89.097 69.812
94 98.116 6.682
95 7.464 27.696
96 24.188 50.007
97 12.148 58.746
98 63.037 79.406
99 15.042 90.014
100 31.788 94.528
101 89.864 82.939
102 10.760 94.263
103 32.290 17.662
104 87.774 84.641
105 7.617 27.562
106 12.066 95.846
107 62.612 3.060
108 23.978 26.297
109 12.311 26.857
110 39.311 17.006
111 48.314 31.107
112 67.742 49.820
113 32.878 39.452
114 66.478 74.421
115 35.968 51.097
116 1.762 92.207
117 72.797 30.760
118 21.321 43.077
119 73.907 38.969
120 63.056 48.548
121 42.075 87.795
122 61.566 44.562
123 59.211 97.594
124 89.387 55.127
125 14.737 82.537
126 13.036 81.829
127 64.085 8.748
128 97.898 55.886
129 4.571 8.647
130 44.205 53.492
131 78.741 52.453
132 79.102 59.572
133 35.331 47.023
134 96.793 76.460
135 99.350 96.986
136 62.217 83.754
137 81.916 37.113
138 93.548 55.322
139 98.527 44.251
140 69.374 21.953
141 97.083 88.735
142 1.206 0.900
143 35.592 97.263
144 85.170 1.493
145 84.491 77.335
146 35.600 52.675
147 14.318 9.170
148 40.238 89.694
149 0.844 90.565
150 32.500 29.977
DEMAND_SECTION
0 0.000
1 3.000
2 7.000
3 1.000
4 5.000
5 7.000
6 4.000
7 6.000
8 8.000
9 9.000
10 9.000
11 3.000
12 1.000
13 8.000
14 2.000
15 10.000
16 6.000
17 10.000
18 10.000
19 10.000
20 8.000
21 8.000
22 4.000
23 8.000
24 2.000
25 2.000
26 8.000
27 5.000
28 2.000
29 6.000
30 5.000
31 10.000
32 2.000
33 6.000
34 9.000
35 1.000
36 8.000
37 8.000
38 9.000
39 8.000
40 4.000
41 1.000
42 8.000
43 4.000
44 3.000
45 8.000
46 8.000
47 4.000
48 3.000
49 4.000
50 9.000
51 3.000
52 1.000
53 7.000
54 3.000
55 1.000
56 5.000
57 7.000
58 6.000
59 6.000
60 2.000
61 10.000
62 2.000
63 6.000
64 6.000
65 6.000
66 10.000
67 10.000
68 6.000
69 2.000
70 1.000
71 3.000
72 4.000
73 8.000
74 10.000
75 9.000
76 10.000
77 6.000
78 2.000
79 4.000
80 9.000
81 10.000
82 7.000
83 4.000
84 5.000
85 5.000
86 1.000
87 8.000
88 7.000
89 8.000
90 6.000
91 4.000
92 10.000
93 4.000
94 2.000
95 4.000
96 9.000
97 9.000
98 3.000
99 6.000
100 10.000
101 9.000
102 6.000
103 10.000
104 10.000
105 4.000
106 6.000
107 6.000
108 6.000
109 2.000
110 9.000
111 5.000
112 10.000
113 6.000
114 7.000
115 2.000
116 9.000
117 1.000
118 7.000
119 3.000
120 8.000
121 1.000
122 2.000
123 5.000
124 5.000
125 5.000
126 1.000
127 3.000
128 6.000
129 5.000
130 6.000
131 7.000
132 10.000
133 2.000
134 4.000
135 2.000
136 2.000
137 9.000
138 10.000
139 1.000
140 4.000
141 8.000
142 4.000
143 1.000
144 6.000
145 10.000
146 7.000
147 9.000
148 4.000
149 5.000
150 6.000
PRIORITY_SECTION
0 0.000
1 0.000
2 2.000
3 2.000
4 0.000
5 2.000
6 5.000
7 0.000
8 0.000
9 1.000
10 5.000
11 0.000
12 0.000
13 0.000
14 2.000
15 2.000
16 0.000
17 0.000
18 0.000
19 5.000
20 0.000
21 2.000
22 0.000
23 0.000
24 2.000
25 0.000
26 5.000
27 0.000
28 5.000
29 0.000
30 2.000
31 0.000
32 1.000
33 2.000
34 1.000
35 5.000
36 0.000
37 2.000
38 0.000
39 0.000
40 2.000
41 2.000
42 0.000
43 0.000
44 0.000
45 0.000
46 0.000
47 5.000
48 0.000
49 2.000
50 1.000
51 5.000
52 0.000
53 5.000
54 0.000
55 2.000
56 0.000
57 0.000
58 1.000
59 1.000
60 0.000
61 0.000
62 1.000
63 1.000
64 0.000
65 0.000
66 0.000
67 0.000
68 0.000
69 0.000
70 0.000
71 1.000
72 0.000
73 2.000
74 2.000
75 5.000
76 0.000
77 5.000
78 0.000
79 2.000
80 2.000
81 0.000
82 0.000
83 0.000
84 1.000
85 2.000
86 0.000
87 1.000
88 1.000
89 0.000
90 2.000
91 0.000
92 2.000
93 1.000
94 0.000
95 0.000
96 5.000
97 5.000
98 5.000
99 2.000
100 2.000
101 2.000
102 0.000
103 5.000
104 0.000
105 0.000
106 5.000
107 0.000
108 2.000
109 0.000
110 1.000
111 1.000
112 0.000
113 0.000
114 0.000
115 1.000
116 0.000
117 5.000
118 2.000
119 2.000
120 1.000
121 0.000
122 0.000
123 0.000
124 0.000
125 0.000
126 0.000
127 0.000
128 5.000
129 2.000
130 0.000
131 5.000
132 0.000
133 0.000
134 0.000
135 2.000
136 0.000
137 1.000
138 0.000
139 0.000
140 0.000
141 1.000
142 0.000
143 0.000
144 0.000
145 0.000
146 0.000
147 2.000
148 0.000
149 1.000
150 0.000
VEHICLE_SECTION
1 22.850 20.000 1.000
2 23.250 35.000 1.200
3 23.640 50.000 1.400
4 24.040 65.000 1.600
5 24.430 80.000 1.800
6 24.820 95.000 2.000
7 25.220 110.000 2.200
8 25.610 125.000 2.400
9 26.010 140.000 2.600
10 26.400 155.000 2.800
11 26.790 170.000 3.000
12 27.190 185.000 3.200
13 27.580 200.000 3.400
14 27.980 215.000 3.600
15 28.370 230.000 3.800
16 28.760 245.000 4.000
17 29.160 260.000 4.200
18 29.550 275.000 4.400
19 29.950 290.000 4.600
20 30.340 305.000 4.800
21 30.730 320.000 5.000
22 31.130 335.000 5.200
23 31.520 350.000 5.400
24 31.920 365.000 5.600
25 32.310 380.000 5.800
26 32.700 395.000 6.000
27 33.100 410.000 6.200
28 33.490 425.000 6.400
29 33.890 440.000 6.600
30 528.180 455.000 6.800
EOF
