NAME: hfvrp_n075_m15_s02
CUSTOMERS: 75
VEHICLES: 15
NODE_COORD_SECTION
0 50.000 50.000
1 42.030 76.049
2 19.141 14.886
3 82.653 43.452
4 63.968 32.829
5 79.396 52.468
6 59.291 53.839
7 58.871 1.503
8 83.762 18.879
9 77.345 41.350
10 7.958 98.140
11 35.266 47.689
12 29.172 7.256
13 37.285 83.042
14 85.033 20.127
15 45.882 89.253
16 75.828 83.495
17 99.304 49.416
18 31.756 11.151
19 43.317 67.423
20 98.485 86.533
21 75.132 91.228
22 57.991 47.998
23 34.352 61.623
24 27.622 88.779
25 76.787 97.505
26 92.682 21.428
27 8.303 84.673
28 35.582 23.824
29 39.067 83.076
30 40.683 19.032
31 79.854 12.599
32 86.569 97.007
33 0.585 60.103
34 67.298 23.517
35 53.969 82.457
36 60.371 98.410
37 6.173 64.914
38 37.821 34.218
39 2.119 29.637
40 70.349 72.181
41 63.515 96.049
42 21.543 58.042
43 26.251 16.789
44 48.161 48.253
45 23.859 70.816
46 56.756 5.918
47 13.244 92.904
48 92.427 2.949
49 32.995 19.941
50 90.238 48.140
51 29.369 18.601
52 67.960 72.329
53 27.224 71.189
54 23.740 48.349
55 68.174 55.937
56 93.570 24.617
57 34.168 87.491
58 47.039 82.735
59 21.268 62.215
60 10.477 32.208
61 27.793 84.700
62 23.141 68.121
63 82.457 86.563
64 4.295 16.443
65 12.052 74.860
66 59.545 79.695
67 17.799 82.354
68 13.906 39.098
69 30.236 67.613
70 96.148 46.221
71 22.425 56.049
72 2.857 54.771
73 0.811 31.617
74 16.141 21.636
75 24.630 77.578
DEMAND_SECTION
0 0.000
1 8.000
2 7.000
3 6.000
4 9.000
5 10.000
6 2.000
7 5.000
8 8.000
9 4.000
10 3.000
11 10.000
12 6.000
13 3.000
14 5.000
15 3.000
16 4.000
17 10.000
18 8.000
19 3.000
20 2.000
21 6.000
22 2.000
23 10.000
24 1.000
25 10.000
26 3.000
27 1.000
28 5.000
29 2.000
30 3.000
31 7.000
32 9.000
33 7.000
34 4.000
35 8.000
36 1.000
37 7.000
38 1.000
39 10.000
40 6.000
41 9.000
42 5.000
43 5.000
44 6.000
45 7.000
46 7.000
47 6.000
48 5.000
49 4.000
50 2.000
51 4.000
52 9.000
53 6.000
54 3.000
55 7.000
56 7.000
57 5.000
58 3.000
59 1.000
60 5.000
61 9.000
62 10.000
63 9.000
64 8.000
65 3.000
66 4.000
67 5.000
68 9.000
69 3.000
70 6.000
71 5.000
72 7.000
73 6.000
74 7.000
75 3.000
PRIORITY_SECTION
0 0.000
1 0.000
2 1.000
3 0.000
4 0.000
5 0.000
6 5.000
7 5.000
8 0.000
9 0.000
10 1.000
11 2.000
12 2.000
13 0.000
14 5.000
15 0.000
16 1.000
17 2.000
18 1.000
19 0.000
20 5.000
21 0.000
22 2.000
23 0.000
24 0.000
25 0.000
26 2.000
27 0.000
28 2.000
29 0.000
30 0.000
31 2.000
32 0.000
33 2.000
34 5.000
35 0.000
36 0.000
37 1.000
38 0.000
39 2.000
40 0.000
41 5.000
42 1.000
43 5.000
44 1.000
45 2.000
46 5.000
47 5.000
48 2.000
49 0.000
50 1.000
51 1.000
52 2.000
53 5.000
54 0.000
55 5.000
56 0.000
57 1.000
58 0.000
59 0.000
60 5.000
61 1.000
62 0.000
63 1.000
64 0.000
65 0.000
66 0.000
67 2.000
68 1.000
69 0.000
70 0.000
71 2.000
72 1.000
73 1.000
74 5.000
75 2.000
VEHICLE_SECTION
1 22.350 20.000 1.000
2 23.140 35.000 1.200
3 23.940 50.000 1.400
4 24.740 65.000 1.600
5 25.540 80.000 1.800
6 26.340 95.000 2.000
7 27.140 110.000 2.200
8 27.930 125.000 2.400
9 28.730 140.000 2.600
10 29.530 155.000 2.800
11 30.330 170.000 3.000
12 31.130 185.000 3.200
13 31.920 200.000 3.400
14 32.720 215.000 3.600
15 249.000 230.000 3.800
EOF
