NAME: hfvrp_n020_m04_s02
CUSTOMERS: 20
VEHICLES: 4
NODE_COORD_SECTION
0 50.000 50.000
1 81.673 30.306
2 22.574 64.162
3 37.871 48.655
4 78.802 72.808
5 2.536 34.413
6 39.092 86.980
7 65.196 50.730
8 37.607 10.649
9 43.870 53.524
10 18.893 53.752
11 9.111 79.070
12 97.933 48.152
13 9.808 23.613
14 37.224 68.938
15 82.204 72.583
16 55.276 77.300
17 78.777 82.904
18 76.811 37.280
19 79.412 43.093
20 45.100 29.547
DEMAND_SECTION
0 0.000
1 8.000
2 10.000
3 1.000
4 4.000
5 9.000
6 7.000
7 5.000
8 6.000
9 10.000
10 3.000
11 8.000
12 10.000
13 1.000
14 10.000
15 1.000
16 2.000
17 8.000
18 4.000
19 4.000
20 7.000
PRIORITY_SECTION
0 0.000
1 0.000
2 2.000
3 1.000
4 0.000
5 0.000
6 0.000
7 0.000
8 0.000
9 2.000
10 0.000
11 0.000
12 5.000
13 1.000
14 0.000
15 2.000
16 0.000
17 5.000
18 1.000
19 0.000
20 0.000
VEHICLE_SECTION
1 23.600 20.000 1.000
2 27.530 35.000 1.200
3 31.470 50.000 1.400
4 105.720 65.000 1.600
EOF
