NAME: hfvrp_n075_m15_s01
CUSTOMERS: 75
VEHICLES: 15
NODE_COORD_SECTION
0 50.000 50.000
1 5.320 24.774
2 11.941 89.753
3 29.116 36.568
4 47.836 66.844
5 15.285 73.210
6 31.858 53.068
7 32.338 51.612
8 55.256 72.247
9 38.720 27.114
10 73.597 44.783
11 9.882 87.118
12 40.133 47.323
13 30.698 1.149
14 91.843 41.801
15 74.696 32.107
16 25.986 8.885
17 39.641 81.945
18 82.582 31.150
19 99.920 52.503
20 25.939 25.344
21 28.214 6.354
22 51.891 65.784
23 2.100 99.230
24 96.701 87.499
25 83.669 55.355
26 2.121 30.765
27 19.116 95.181
28 5.231 28.589
29 66.648 30.816
30 83.023 45.072
31 43.898 49.277
32 99.944 99.472
33 47.294 64.015
34 70.161 91.898
35 16.283 46.431
36 27.646 61.834
37 48.223 16.855
38 20.372 97.666
39 24.936 10.140
40 44.994 99.180
41 11.261 92.036
42 45.301 96.087
43 87.081 65.166
44 55.850 50.911
45 34.855 91.880
46 57.755 81.241
47 5.084 81.467
48 98.350 28.866
49 14.080 64.880
50 43.422 33.437
51 2.175 68.253
52 95.024 42.179
53 13.890 95.675
54 42.018 47.164
55 19.463 60.820
56 62.383 5.085
57 46.847 17.269
58 83.773 47.231
59 89.007 82.726
60 95.608 54.002
61 3.213 25.154
62 50.025 89.466
63 86.029 82.968
64 38.929 55.111
65 54.584 52.018
66 57.090 84.568
67 17.251 60.110
68 4.734 75.835
69 14.619 69.382
70 70.426 83.201
71 57.327 51.021
72 93.225 97.350
73 29.877 28.833
74 23.637 18.506
75 42.780 52.429
DEMAND_SECTION
0 0.000
1 4.000
2 7.000
3 6.000
4 1.000
5 3.000
6 8.000
7 3.000
8 5.000
9 4.000
10 3.000
11 6.000
12 6.000
13 4.000
14 3.000
15 1.000
16 9.000
17 9.000
18 2.000
19 7.000
20 6.000
21 5.000
22 2.000
23 8.000
24 2.000
25 3.000
26 10.000
27 1.000
28 4.000
29 5.000
30 10.000
31 1.000
32 6.000
33 7.000
34 2.000
35 2.000
36 3.000
37 10.000
38 3.000
39 1.000
40 1.000
41 7.000
42 5.000
43 8.000
44 2.000
45 2.000
46 9.000
47 4.000
48 1.000
49 4.000
50 9.000
51 1.000
52 5.000
53 8.000
54 10.000
55 6.000
56 3.000
57 1.000
58 1.000
59 6.000
60 6.000
61 3.000
62 5.000
63 8.000
64 3.000
65 10.000
66 9.000
67 7.000
68 9.000
69 5.000
70 4.000
71 1.000
72 9.000
73 2.000
74 1.000
75 1.000
PRIORITY_SECTION
0 0.000
1 0.000
2 0.000
3 0.000
4 1.000
5 5.000
6 0.000
7 0.000
8 5.000
9 5.000
10 5.000
11 0.000
12 0.000
13 0.000
14 0.000
15 1.000
16 5.000
17 0.000
18 2.000
19 0.000
20 0.000
21 0.000
22 1.000
23 0.000
24 0.000
25 2.000
26 0.000
27 5.000
28 5.000
29 2.000
30 0.000
31 0.000
32 0.000
33 0.000
34 2.000
35 0.000
36 0.000
37 5.000
38 0.000
39 0.000
40 0.000
41 0.000
42 0.000
43 0.000
44 0.000
45 0.000
46 0.000
47 0.000
48 1.000
49 0.000
50 5.000
51 0.000
52 2.000
53 1.000
54 0.000
55 0.000
56 0.000
57 5.000
58 0.000
59 0.000
60 2.000
61 0.000
62 1.000
63 0.000
64 5.000
65 5.000
66 0.000
67 0.000
68 5.000
69 1.000
70 0.000
71 0.000
72 1.000
73 0.000
74 0.000
75 0.000
VEHICLE_SECTION
1 19.090 20.000 1.000
2 19.780 35.000 1.200
3 20.460 50.000 1.400
4 21.140 65.000 1.600
5 21.820 80.000 1.800
6 22.500 95.000 2.000
7 23.180 110.000 2.200
8 23.870 125.000 2.400
9 24.550 140.000 2.600
10 25.230 155.000 2.800
11 25.910 170.000 3.000
12 26.590 185.000 3.200
13 27.280 200.000 3.400
14 27.960 215.000 3.600
15 212.780 230.000 3.800
EOF
