NAME: hfvrp_n050_m10_s04
CUSTOMERS: 50
VEHICLES: 10
NODE_COORD_SECTION
0 50.000 50.000
1 66.788 81.390
2 60.678 95.659
3 87.897 29.383
4 73.929 99.342
5 11.260 25.824
6 33.956 28.087
7 19.396 72.135
8 83.520 80.501
9 41.673 43.205
10 17.058 57.350
11 66.134 27.839
12 93.570 80.954
13 49.481 89.195
14 4.360 84.960
15 34.530 33.755
16 3.648 94.899
17 21.819 35.268
18 43.668 22.342
19 81.226 60.080
20 92.416 24.518
21 22.191 33.231
22 82.882 69.206
23 52.323 76.715
24 15.930 39.750
25 97.917 89.674
26 67.868 71.272
27 6.324 74.482
28 76.729 42.792
29 26.219 18.587
30 8.221 25.236
31 96.646 52.601
32 47.696 67.243
33 83.397 29.002
34 32.807 60.183
35 7.412 21.269
36 8.109 81.477
37 74.404 98.421
38 49.859 34.842
39 79.602 53.745
40 50.984 26.084
41 98.673 62.866
42 93.639 66.098
43 71.194 55.880
44 59.825 91.985
45 44.226 65.898
46 53.490 84.414
47 36.561 24.360
48 87.297 90.258
49 85.648 61.336
50 58.266 32.770
DEMAND_SECTION
0 0.000
1 4.000
2 1.000
3 4.000
4 9.000
5 4.000
6 9.000
7 7.000
8 10.000
9 6.000
10 6.000
11 10.000
12 2.000
13 2.000
14 9.000
15 9.000
16 3.000
17 1.000
18 9.000
19 5.000
20 4.000
21 9.000
22 3.000
23 6.000
24 4.000
25 8.000
26 4.000
27 9.000
28 7.000
29 6.000
30 10.000
31 3.000
32 5.000
33 6.000
34 10.000
35 9.000
36 3.000
37 8.000
38 6.000
39 7.000
40 1.000
41 7.000
42 2.000
43 4.000
44 10.000
45 10.000
46 5.000
47 9.000
48 2.000
49 5.000
50 1.000
PRIORITY_SECTION
0 0.000
1 5.000
2 0.000
3 0.000
4 5.000
5 0.000
6 0.000
7 5.000
8 0.000
9 0.000
10 0.000
11 5.000
12 0.000
13 0.000
14 5.000
15 1.000
16 1.000
17 2.000
18 0.000
19 5.000
20 2.000
21 0.000
22 0.000
23 5.000
24 1.000
25 0.000
26 0.000
27 5.000
28 0.000
29 0.000
30 5.000
31 5.000
32 2.000
33 0.000
34 0.000
35 5.000
36 1.000
37 0.000
38 0.000
39 1.000
40 0.000
41 2.000
42 0.000
43 5.000
44 0.000
45 0.000
46 0.000
47 5.000
48 2.000
49 0.000
50 0.000
VEHICLE_SECTION
1 23.440 20.000 1.000
2 24.740 35.000 1.200
3 26.040 50.000 1.400
4 27.350 65.000 1.600
5 28.650 80.000 1.800
6 29.950 95.000 2.000
7 31.250 110.000 2.200
8 32.560 125.000 2.400
9 33.860 140.000 2.600
10 217.720 155.000 2.800
EOF
