NAME: hfvrp_n030_m06_s04
CUSTOMERS: 30
VEHICLES: 6
NODE_COORD_SECTION
0 50.000 50.000
1 49.651 1.993
2 7.696 38.706
3 47.103 26.226
4 93.529 90.243
5 29.991 55.375
6 99.372 85.196
7 95.694 45.489
8 1.972 16.498
9 32.250 13.035
10 77.608 1.753
11 47.470 54.730
12 38.051 93.475
13 24.530 44.758
14 34.818 46.587
15 29.199 64.992
16 19.212 14.320
17 40.328 0.029
18 95.715 71.075
19 51.907 13.022
20 24.721 85.434
21 17.779 65.570
22 32.127 41.599
23 66.749 97.381
24 7.309 13.049
25 49.014 77.635
26 76.260 53.644
27 27.663 98.561
28 8.271 30.996
29 57.761 73.967
30 62.775 30.055
DEMAND_SECTION
0 0.000
1 6.000
2 7.000
3 3.000
4 9.000
5 9.000
6 5.000
7 6.000
8 8.000
9 1.000
10 5.000
11 8.000
12 7.000
13 7.000
14 5.000
15 1.000
16 9.000
17 1.000
18 5.000
19 2.000
20 8.000
21 6.000
22 5.000
23 2.000
24 3.000
25 6.000
26 8.000
27 5.000
28 7.000
29 5.000
30 10.000
PRIORITY_SECTION
0 0.000
1 2.000
2 0.000
3 2.000
4 0.000
5 0.000
6 0.000
7 2.000
8 2.000
9 2.000
10 2.000
11 0.000
12 0.000
13 0.000
14 1.000
15 1.000
16 1.000
17 5.000
18 5.000
19 0.000
20 0.000
21 0.000
22 0.000
23 0.000
24 0.000
25 0.000
26 5.000
27 0.000
28 0.000
29 0.000
30 0.000
VEHICLE_SECTION
1 22.530 20.000 1.000
2 24.790 35.000 1.200
3 27.040 50.000 1.400
4 29.290 65.000 1.600
5 31.550 80.000 1.800
6 121.100 95.000 2.000
EOF
