NAME: hfvrp_n030_m06_s03
CUSTOMERS: 30
VEHICLES: 6
NODE_COORD_SECTION
0 50.000 50.000
1 24.900 4.022
2 53.827 17.480
3 0.721 84.298
4 28.868 27.101
5 12.734 50.825
6 78.128 92.955
7 44.030 66.445
8 65.009 99.903
9 86.962 94.037
10 11.873 50.147
11 8.155 68.530
12 19.699 47.005
13 39.795 15.926
14 82.426 63.803
15 20.273 23.576
16 95.575 72.588
17 1.168 22.079
18 96.315 11.659
19 71.748 74.386
20 34.865 26.056
21 68.740 34.586
22 78.061 60.727
23 80.939 83.749
24 49.997 21.378
25 28.166 52.893
26 13.749 3.011
27 8.567 83.200
28 36.385 41.723
29 79.421 64.840
30 6.516 28.857
DEMAND_SECTION
0 0.000
1 4.000
2 9.000
3 8.000
4 3.000
5 9.000
6 6.000
7 10.000
8 8.000
9 10.000
10 4.000
11 3.000
12 10.000
13 3.000
14 1.000
15 8.000
16 2.000
17 9.000
18 7.000
19 10.000
20 5.000
21 1.000
22 10.000
23 9.000
24 1.000
25 5.000
26 10.000
27 3.000
28 6.000
29 5.000
30 3.000
PRIORITY_SECTION
0 0.000
1 0.000
2 0.000
3 2.000
4 0.000
5 0.000
6 0.000
7 0.000
8 5.000
9 0.000
10 1.000
11 0.000
12 1.000
13 0.000
14 0.000
15 0.000
16 5.000
17 1.000
18 0.000
19 0.000
20 2.000
21 5.000
22 0.000
23 0.000
24 0.000
25 0.000
26 1.000
27 0.000
28 0.000
29 2.000
30 0.000
VEHICLE_SECTION
1 24.270 20.000 1.000
2 26.690 35.000 1.200
3 29.120 50.000 1.400
4 31.550 65.000 1.600
5 33.970 80.000 1.800
6 130.440 95.000 2.000
EOF
