NAME: hfvrp_n030_m06_s01
CUSTOMERS: 30
VEHICLES: 6
NODE_COORD_SECTION
0 50.000 50.000
1 87.227 80.615
2 50.829 97.181
3 23.146 56.147
4 83.374 70.393
5 80.498 71.255
6 13.187 15.028
7 57.074 50.038
8 32.664 10.472
9 48.538 11.584
10 67.924 43.497
11 44.648 6.819
12 33.324 28.559
13 0.099 78.265
14 43.246 67.748
15 51.468 21.185
16 9.656 23.288
17 60.753 78.144
18 23.609 88.804
19 80.545 86.059
20 90.277 8.351
21 21.874 96.985
22 92.911 58.244
23 42.021 13.915
24 83.741 59.033
25 18.396 97.758
26 74.306 14.514
27 23.181 85.670
28 8.237 2.197
29 52.651 16.455
30 5.365 3.866
DEMAND_SECTION
0 0.000
1 4.000
2 1.000
3 1.000
4 7.000
5 2.000
6 4.000
7 8.000
8 10.000
9 1.000
10 2.000
11 3.000
12 5.000
13 8.000
14 9.000
15 4.000
16 1.000
17 4.000
18 4.000
19 7.000
20 7.000
21 7.000
22 9.000
23 5.000
24 8.000
25 3.000
26 5.000
27 7.000
28 4.000
29 8.000
30 5.000
PRIORITY_SECTION
0 0.000
1 0.000
2 0.000
3 0.000
4 0.000
5 5.000
6 1.000
7 0.000
8 5.000
9 5.000
10 5.000
11 0.000
12 2.000
13 0.000
14 0.000
15 0.000
16 0.000
17 1.000
18 0.000
19 0.000
20 0.000
21 5.000
22 0.000
23 5.000
24 0.000
25 0.000
26 5.000
27 2.000
28 1.000
29 0.000
30 1.000
VEHICLE_SECTION
1 20.400 20.000 1.000
2 22.440 35.000 1.200
3 24.480 50.000 1.400
4 26.520 65.000 1.600
5 28.560 80.000 1.800
6 109.630 95.000 2.000
EOF
