NAME: hfvrp_n015_m03_s02
CUSTOMERS: 15
VEHICLES: 3
NODE_COORD_SECTION
0 50.000 50.000
1 22.336 61.367
2 27.213 0.203
3 27.905 82.001
4 18.323 27.569
5 84.672 44.530
6 14.431 14.023
7 4.748 4.812
8 64.059 45.489
9 61.640 59.068
10 91.101 62.101
11 70.293 10.318
12 38.510 75.870
13 16.276 28.129
14 7.976 72.285
15 45.099 7.290
DEMAND_SECTION
0 0.000
1 5.000
2 3.000
3 10.000
4 4.000
5 5.000
6 2.000
7 1.000
8 4.000
9 1.000
10 8.000
11 9.000
12 6.000
13 6.000
14 8.000
15 3.000
PRIORITY_SECTION
0 0.000
1 0.000
2 0.000
3 0.000
4 1.000
5 0.000
6 5.000
7 0.000
8 2.000
9 2.000
10 0.000
11 1.000
12 5.000
13 0.000
14 0.000
15 5.000
VEHICLE_SECTION
1 20.000 20.000 1.000
2 25.000 35.000 1.200
3 74.650 50.000 1.400
EOF
