NAME: hfvrp_n050_m10_s03
CUSTOMERS: 50
VEHICLES: 10
NODE_COORD_SECTION
0 50.000 50.000
1 43.543 44.789
2 43.873 78.340
3 48.457 63.322
4 94.764 85.442
5 19.350 19.723
6 24.577 92.257
7 91.867 33.702
8 72.156 87.957
9 62.933 22.240
10 26.101 47.791
11 61.137 38.045
12 94.367 9.361
13 78.414 47.205
14 55.880 79.347
15 62.120 11.044
16 39.367 10.319
17 90.020 28.317
18 21.418 49.336
19 76.403 55.898
20 69.817 47.955
21 18.940 37.399
22 10.066 18.062
23 21.749 20.164
24 16.035 21.332
25 90.082 35.169
26 25.973 70.712
27 0.716 90.925
28 35.418 58.979
29 43.221 53.404
30 1.136 77.294
31 74.176 61.577
32 69.757 15.558
33 97.652 12.925
34 63.727 77.151
35 77.391 4.185
36 35.940 45.335
37 36.728 65.509
38 41.466 7.645
39 46.505 51.871
40 76.936 11.249
41 54.437 1.096
42 98.638 26.258
43 14.213 4.079
44 57.483 16.727
45 54.130 91.038
46 13.835 67.937
47 3.676 49.594
48 10.974 65.045
49 48.117 7.171
50 98.674 18.251
DEMAND_SECTION
0 0.000
1 4.000
2 10.000
3 6.000
4 7.000
5 10.000
6 1.000
7 2.000
8 1.000
9 7.000
10 7.000
11 1.000
12 9.000
13 10.000
14 9.000
15 3.000
16 10.000
17 7.000
18 2.000
19 9.000
20 5.000
21 9.000
22 10.000
23 9.000
24 2.000
25 9.000
26 10.000
27 8.000
28 6.000
29 8.000
30 2.000
31 1.000
32 1.000
33 7.000
34 10.000
35 4.000
36 4.000
37 5.000
38 6.000
39 8.000
40 2.000
41 5.000
42 2.000
43 4.000
44 8.000
45 7.000
46 5.000
47 1.000
48 4.000
49 4.000
50 4.000
PRIORITY_SECTION
0 0.000
1 2.000
2 1.000
3 0.000
4 1.000
5 0.000
6 0.000
7 5.000
8 2.000
9 5.000
10 0.000
11 0.000
12 2.000
13 5.000
14 1.000
15 1.000
16 0.000
17 0.000
18 0.000
19 5.000
20 0.000
21 5.000
22 5.000
23 0.000
24 1.000
25 0.000
26 0.000
27 2.000
28 0.000
29 5.000
30 2.000
31 0.000
32 0.000
33 1.000
34 5.000
35 0.000
36 5.000
37 0.000
38 5.000
39 0.000
40 5.000
41 0.000
42 0.000
43 0.000
44 1.000
45 5.000
46 0.000
47 2.000
48 1.000
49 2.000
50 0.000
VEHICLE_SECTION
1 22.800 20.000 1.000
2 24.070 35.000 1.200
3 25.330 50.000 1.400
4 26.600 65.000 1.600
5 27.870 80.000 1.800
6 29.130 95.000 2.000
7 30.400 110.000 2.200
8 31.670 125.000 2.400
9 32.930 140.000 2.600
10 211.750 155.000 2.800
EOF
