NAME: hfvrp_n150_m30_s03
CUSTOMERS: 150
VEHICLES: 30
NODE_COORD_SECTION
0 50.000 50.000
1 13.582 95.766
2 10.393 61.333
3 99.499 33.377
4 44.946 61.216
5 51.479 68.716
6 21.702 54.216
7 89.992 22.150
8 20.151 86.974
9 83.552 1.189
10 12.373 81.391
11 91.252 11.753
12 22.426 11.967
13 4.520 13.454
14 40.175 95.253
15 20.769 63.738
16 66.602 63.374
17 77.336 71.073
18 54.642 81.541
19 46.859 3.709
20 75.360 81.444
21 85.759 4.439
22 18.888 14.777
23 76.499 89.461
24 63.411 70.001
25 64.924 2.626
26 13.203 51.627
27 97.957 76.863
28 98.637 54.532
29 41.116 27.138
30 63.865 13.583
31 14.524 1.687
32 84.456 23.874
33 24.467 12.419
34 50.701 29.750
35 95.927 31.209
36 55.268 31.315
37 22.075 29.025
38 4.688 89.433
39 50.676 60.430
40 68.526 39.540
41 36.993 36.549
42 14.679 11.274
43 28.147 47.970
44 97.357 97.387
45 72.199 9.464
46 67.941 59.231
47 27.121 31.092
48 31.713 26.406
49 28.311 24.701
50 31.384 39.395
51 54.543 54.778
52 52.450 54.011
53 57.090 10.736
54 14.066 34.727
55 77.872 78.546
56 29.603 81.564
57 42.760 5.108
58 7.968 27.034
59 63.447 38.561
60 26.150 21.996
61 24.633 70.778
62 62.570 16.134
63 64.180 20.593
64 38.926 34.659
65 75.428 51.927
66 89.837 89.370
67 85.404 88.612
68 83.311 6.601
69 5.379 51.958
70 72.548 57.478
71 19.823 51.011
72 58.933 55.791
73 68.264 24.873
74 26.532 93.378
75 76.509 6.116
76 26.203 57.779
77 49.028 27.990
78 35.506 7.309
79 16.553 61.349
80 79.795 37.653
81 97.707 30.357
82 6.635 66.839
83 63.509 98.456
84 37.894 19.791
85 19.521 81.170
86 20.115 11.682
87 26.407 87.296
88 58.758 63.623
89 17.425 66.815
90 48.364 64.864
91 38.983 51.563
92 34.772 16.396
93 4.637 76.405
94 58.182 16.935
95 64.813 8.627
96 31.182 57.359
97 7.674 6.768
98 62.016 72.396
99 77.255 39.889
100 64.398 8.095
101 96.661 12.119
102 72.243 53.831
103 48.528 15.875
104 42.872 87.318
105 27.279 8.947
106 41.819 82.977
107 72.798 80.216
108 81.657 36.663
109 12.087 64.882
110 85.253 71.088
111 95.556 13.312
112 41.963 87.723
113 23.256 53.237
114 8.813 19.201
115 97.694 97.951
116 87.425 91.690
117 85.649 52.823
118 55.735 38.425
119 32.456 46.428
120 23.166 67.268
121 54.750 85.251
122 50.117 57.641
123 57.876 8.567
124 46.512 79.742
125 69.613 64.191
126 3.633 0.590
127 78.710 57.015
128 51.609 13.788
129 46.286 55.893
130 12.589 55.762
131 65.144 53.473
132 9.059 88.511
133 63.353 6.868
134 59.011 23.244
135 77.866 1.979
136 12.809 91.837
137 62.146 0.907
138 66.302 36.619
139 46.400 57.151
140 66.160 9.671
141 15.687 17.982
142 53.421 28.325
143 10.696 27.703
144 10.539 21.018
145 51.243 83.902
146 14.200 41.536
147 74.080 92.162
148 41.882 12.017
149 63.658 21.894
150 29.167 27.264
DEMAND_SECTION
0 0.000
1 8.000
2 2.000
3 2.000
4 6.000
5 3.000
6 5.000
7 7.000
8 5.000
9 9.000
10 4.000
11 5.000
12 3.000
13 5.000
14 4.000
15 9.000
16 1.000
17 8.000
18 7.000
19 9.000
20 4.000
21 5.000
22 5.000
23 8.000
24 8.000
25 1.000
26 2.000
27 4.000
28 7.000
29 4.000
30 9.000
31 5.000
32 3.000
33 2.000
34 1.000
35 7.000
36 10.000
37 8.000
38 9.000
39 7.000
40 9.000
41 4.000
42 9.000
43 1.000
44 7.000
45 10.000
46 4.000
47 6.000
48 9.000
49 7.000
50 9.000
51 6.000
52 9.000
53 6.000
54 10.000
55 5.000
56 3.000
57 8.000
58 2.000
59 7.000
60 6.000
61 8.000
62 5.000
63 10.000
64 10.000
65 5.000
66 8.000
67 3.000
68 3.000
69 9.000
70 5.000
71 7.000
72 4.000
73 5.000
74 10.000
75 7.000
76 10.000
77 10.000
78 8.000
79 3.000
80 3.000
81 6.000
82 9.000
83 4.000
84 5.000
85 10.000
86 3.000
87 5.000
88 6.000
89 7.000
90 3.000
91 8.000
92 7.000
93 10.000
94 7.000
95 3.000
96 6.000
97 6.000
98 7.000
99 7.000
100 8.000
101 9.000
102 9.000
103 6.000
104 2.000
105 2.000
106 4.000
107 1.000
108 1.000
109 9.000
110 2.000
111 4.000
112 4.000
113 3.000
114 10.000
115 2.000
116 6.000
117 9.000
118 2.000
119 9.000
120 6.000
121 6.000
122 2.000
123 6.000
124 9.000
125 1.000
126 6.000
127 10.000
128 6.000
129 2.000
130 3.000
131 8.000
132 3.000
133 6.000
134 4.000
135 6.000
136 1.000
137 7.000
138 5.000
139 10.000
140 9.000
141 2.000
142 7.000
143 3.000
144 4.000
145 10.000
146 5.000
147 6.000
148 7.000
149 5.000
150 10.000
PRIORITY_SECTION
0 0.000
1 5.000
2 1.000
3 0.000
4 0.000
5 0.000
6 2.000
7 0.000
8 2.000
9 1.000
10 0.000
11 2.000
12 0.000
13 5.000
14 1.000
15 1.000
16 0.000
17 2.000
18 0.000
19 1.000
20 0.000
21 2.000
22 1.000
23 1.000
24 0.000
25 0.000
26 0.000
27 1.000
28 0.000
29 0.000
30 0.000
31 0.000
32 5.000
33 2.000
34 5.000
35 2.000
36 0.000
37 0.000
38 5.000
39 0.000
40 1.000
41 0.000
42 2.000
43 5.000
44 0.000
45 0.000
46 0.000
47 0.000
48 0.000
49 0.000
50 0.000
51 0.000
52 1.000
53 0.000
54 1.000
55 2.000
56 0.000
57 1.000
58 1.000
59 0.000
60 2.000
61 1.000
62 2.000
63 0.000
64 0.000
65 0.000
66 5.000
67 1.000
68 2.000
69 0.000
70 1.000
71 2.000
72 2.000
73 1.000
74 0.000
75 1.000
76 5.000
77 1.000
78 0.000
79 2.000
80 5.000
81 1.000
82 0.000
83 2.000
84 5.000
85 1.000
86 0.000
87 0.000
88 0.000
89 0.000
90 0.000
91 2.000
92 0.000
93 1.000
94 0.000
95 1.000
96 2.000
97 0.000
98 0.000
99 5.000
100 2.000
101 2.000
102 0.000
103 0.000
104 0.000
105 0.000
106 1.000
107 5.000
108 0.000
109 0.000
110 0.000
111 2.000
112 1.000
113 1.000
114 0.000
115 5.000
116 1.000
117 0.000
118 1.000
119 1.000
120 5.000
121 5.000
122 2.000
123 2.000
124 0.000
125 1.000
126 5.000
127 0.000
128 0.000
129 0.000
130 0.000
131 0.000
132 1.000
133 0.000
134 5.000
135 1.000
136 1.000
137 0.000
138 1.000
139 0.000
140 1.000
141 5.000
142 2.000
143 0.000
144 0.000
145 5.000
146 1.000
147 2.000
148 0.000
149 5.000
150 1.000
VEHICLE_SECTION
1 23.390 20.000 1.000
2 23.790 35.000 1.200
3 24.190 50.000 1.400
4 24.600 65.000 1.600
5 25.000 80.000 1.800
6 25.400 95.000 2.000
7 25.810 110.000 2.200
8 26.210 125.000 2.400
9 26.610 140.000 2.600
10 27.020 155.000 2.800
11 27.420 170.000 3.000
12 27.820 185.000 3.200
13 28.230 200.000 3.400
14 28.630 215.000 3.600
15 29.030 230.000 3.800
16 29.430 245.000 4.000
17 29.840 260.000 4.200
18 30.240 275.000 4.400
19 30.640 290.000 4.600
20 31.050 305.000 4.800
21 31.450 320.000 5.000
22 31.850 335.000 5.200
23 32.260 350.000 5.400
24 32.660 365.000 5.600
25 33.060 380.000 5.800
26 33.470 395.000 6.000
27 33.870 410.000 6.200
28 34.270 425.000 6.400
29 34.680 440.000 6.600
30 540.490 455.000 6.800
EOF
