NAME: hfvrp_n010_m03_s02
CUSTOMERS: 10
VEHICLES: 3
NODE_COORD_SECTION
0 50.000 50.000
1 1.966 59.273
2 85.873 40.474
3 48.266 88.255
4 83.144 37.701
5 87.946 20.815
6 1.011 39.727
7 76.751 56.956
8 80.323 62.712
9 38.223 18.838
10 58.302 81.760
DEMAND_SECTION
0 0.000
1 9.000
2 9.000
3 3.000
4 10.000
5 3.000
6 10.000
7 6.000
8 7.000
9 5.000
10 3.000
PRIORITY_SECTION
0 0.000
1 0.000
2 5.000
3 5.000
4 1.000
5 0.000
6 0.000
7 0.000
8 0.000
9 0.000
10 0.000
VEHICLE_SECTION
1 17.330 20.000 1.000
2 21.670 35.000 1.200
3 64.700 50.000 1.400
EOF
