NAME: hfvrp_n100_m20_s02
CUSTOMERS: 100
VEHICLES: 20
NODE_COORD_SECTION
0 50.000 50.000
1 61.376 76.221
2 49.001 41.935
3 10.588 25.445
4 3.333 59.885
5 93.126 34.387
6 80.276 34.261
7 41.138 88.143
8 91.137 61.471
9 2.039 56.463
10 13.122 81.371
11 28.753 9.733
12 12.820 27.585
13 91.254 58.433
14 41.938 92.448
15 87.291 52.845
16 14.511 87.973
17 78.500 72.388
18 30.625 16.543
19 22.476 7.057
20 8.280 88.177
21 91.274 77.415
22 89.890 32.250
23 12.383 69.412
24 30.965 93.002
25 46.808 51.817
26 98.025 15.800
27 7.739 7.016
28 18.377 52.151
29 96.589 66.165
30 19.871 15.119
31 28.356 9.152
32 49.667 12.041
33 20.812 58.687
34 36.783 37.768
35 42.068 2.746
36 12.781 73.383
37 90.529 22.059
38 38.881 92.251
39 80.682 86.134
40 0.506 7.038
41 19.449 28.021
42 97.299 65.933
43 78.680 35.888
44 82.461 17.706
45 82.308 41.559
46 46.439 44.541
47 66.583 63.844
48 40.929 44.060
49 32.429 15.229
50 95.285 94.757
51 57.220 87.968
52 35.997 51.963
53 78.644 97.937
54 89.760 72.968
55 68.228 74.716
56 20.490 76.532
57 77.900 17.358
58 25.055 97.937
59 5.942 81.380
60 87.219 35.275
61 6.034 11.046
62 75.535 72.422
63 83.770 50.991
64 90.922 28.528
65 10.399 56.289
66 93.871 1.246
67 58.733 77.048
68 60.776 53.328
69 15.509 70.775
70 57.447 88.107
71 92.594 29.986
72 83.278 2.009
73 83.832 23.203
74 85.896 74.413
75 49.978 80.800
76 38.345 71.962
77 24.544 21.449
78 20.995 9.151
79 61.756 96.477
80 96.944 1.519
81 38.691 2.256
82 50.566 67.864
83 40.455 96.234
84 73.559 77.707
85 50.218 90.213
86 58.132 32.226
87 82.992 19.288
88 47.026 92.841
89 8.006 42.956
90 32.467 89.758
91 73.335 38.862
92 2.781 85.675
93 62.294 88.523
94 68.612 50.441
95 62.203 57.187
96 87.477 81.297
97 82.272 79.014
98 24.697 78.552
99 23.888 95.404
100 72.214 52.965
DEMAND_SECTION
0 0.000
1 9.000
2 3.000
3 2.000
4 6.000
5 2.000
6 6.000
7 7.000
8 4.000
9 8.000
10 7.000
11 1.000
12 1.000
13 2.000
14 6.000
15 8.000
16 3.000
17 2.000
18 5.000
19 3.000
20 5.000
21 2.000
22 4.000
23 6.000
24 3.000
25 1.000
26 5.000
27 2.000
28 1.000
29 3.000
30 4.000
31 9.000
32 2.000
33 7.000
34 3.000
35 4.000
36 5.000
37 10.000
38 3.000
39 3.000
40 5.000
41 1.000
42 7.000
43 10.000
44 8.000
45 10.000
46 4.000
47 9.000
48 8.000
49 6.000
50 4.000
51 5.000
52 1.000
53 2.000
54 6.000
55 6.000
56 6.000
57 7.000
58 4.000
59 1.000
60 7.000
61 7.000
62 1.000
63 4.000
64 6.000
65 9.000
66 7.000
67 10.000
68 6.000
69 5.000
70 2.000
71 4.000
72 8.000
73 3.000
74 3.000
75 2.000
76 5.000
77 7.000
78 4.000
79 8.000
80 7.000
81 1.000
82 6.000
83 9.000
84 1.000
85 4.000
86 6.000
87 2.000
88 6.000
89 2.000
90 2.000
91 9.000
92 10.000
93 5.000
94 2.000
95 6.000
96 4.000
97 5.000
98 3.000
99 2.000
100 9.000
PRIORITY_SECTION
0 0.000
1 5.000
2 1.000
3 0.000
4 5.000
5 0.000
6 0.000
7 5.000
8 0.000
9 5.000
10 0.000
11 0.000
12 2.000
13 0.000
14 5.000
15 0.000
16 0.000
17 2.000
18 0.000
19 5.000
20 1.000
21 1.000
22 0.000
23 2.000
24 2.000
25 0.000
26 5.000
27 2.000
28 2.000
29 5.000
30 0.000
31 5.000
32 0.000
33 1.000
34 1.000
35 0.000
36 0.000
37 2.000
38 2.000
39 2.000
40 0.000
41 0.000
42 0.000
43 0.000
44 0.000
45 0.000
46 0.000
47 0.000
48 0.000
49 0.000
50 0.000
51 0.000
52 1.000
53 0.000
54 0.000
55 0.000
56 0.000
57 5.000
58 5.000
59 5.000
60 5.000
61 0.000
62 1.000
63 0.000
64 0.000
65 0.000
66 1.000
67 2.000
68 0.000
69 0.000
70 5.000
71 5.000
72 5.000
73 1.000
74 0.000
75 0.000
76 0.000
77 5.000
78 5.000
79 1.000
80 0.000
81 0.000
82 0.000
83 0.000
84 5.000
85 1.000
86 1.000
87 2.000
88 0.000
89 5.000
90 2.000
91 2.000
92 0.000
93 1.000
94 5.000
95 0.000
96 2.000
97 0.000
98 0.000
99 0.000
100 1.000
VEHICLE_SECTION
1 19.440 20.000 1.000
2 19.950 35.000 1.200
3 20.460 50.000 1.400
4 20.970 65.000 1.600
5 21.490 80.000 1.800
6 22.000 95.000 2.000
7 22.510 110.000 2.200
8 23.020 125.000 2.400
9 23.530 140.000 2.600
10 24.040 155.000 2.800
11 24.560 170.000 3.000
12 25.070 185.000 3.200
13 25.580 200.000 3.400
14 26.090 215.000 3.600
15 26.600 230.000 3.800
16 27.110 245.000 4.000
17 27.630 260.000 4.200
18 28.140 275.000 4.400
19 28.650 290.000 4.600
20 311.990 305.000 4.800
EOF
