NAME: augerat_A_n54_k7
CUSTOMERS: 53
VEHICLES: 8
NODE_COORD_SECTION
0 61.000000 5.000000
1 85.000000 53.000000
2 17.000000 57.000000
3 49.000000 93.000000
4 69.000000 11.000000
5 87.000000 15.000000
6 49.000000 39.000000
7 87.000000 23.000000
8 19.000000 83.000000
9 69.000000 87.000000
10 69.000000 43.000000
11 49.000000 67.000000
12 17.000000 61.000000
13 45.000000 61.000000
14 21.000000 53.000000
15 71.000000 37.000000
16 53.000000 23.000000
17 77.000000 63.000000
18 89.000000 7.000000
19 21.000000 83.000000
20 77.000000 25.000000
21 85.000000 95.000000
22 43.000000 93.000000
23 75.000000 25.000000
24 1.000000 43.000000
25 7.000000 7.000000
26 81.000000 69.000000
27 23.000000 57.000000
28 81.000000 15.000000
29 77.000000 35.000000
30 49.000000 3.000000
31 21.000000 93.000000
32 41.000000 37.000000
33 71.000000 91.000000
34 31.000000 13.000000
35 69.000000 33.000000
36 91.000000 47.000000
37 13.000000 69.000000
38 65.000000 75.000000
39 91.000000 27.000000
40 9.000000 85.000000
41 15.000000 19.000000
42 7.000000 37.000000
43 61.000000 11.000000
44 59.000000 83.000000
45 85.000000 69.000000
46 15.000000 29.000000
47 1.000000 13.000000
48 1.000000 83.000000
49 85.000000 31.000000
50 95.000000 25.000000
51 5.000000 33.000000
52 51.000000 11.000000
53 51.000000 85.000000
DEMAND_SECTION
0 0.000000
1 24.000000
2 9.000000
3 15.000000
4 17.000000
5 2.000000
6 19.000000
7 10.000000
8 17.000000
9 20.000000
10 16.000000
11 8.000000
12 12.000000
13 3.000000
14 23.000000
15 4.000000
16 23.000000
17 20.000000
18 2.000000
19 19.000000
20 2.000000
21 23.000000
22 23.000000
23 5.000000
24 12.000000
25 15.000000
26 9.000000
27 13.000000
28 18.000000
29 16.000000
30 7.000000
31 6.000000
32 2.000000
33 8.000000
34 2.000000
35 2.000000
36 4.000000
37 13.000000
38 18.000000
39 9.000000
40 19.000000
41 3.000000
42 14.000000
43 19.000000
44 21.000000
45 4.000000
46 6.000000
47 22.000000
48 13.000000
49 10.000000
50 18.000000
51 5.000000
52 9.000000
53 36.000000
PRIORITY_SECTION
0 0.000
1 0.000
2 2.000
3 1.000
4 0.000
5 0.000
6 0.000
7 2.000
8 1.000
9 5.000
10 0.000
11 0.000
12 0.000
13 0.000
14 0.000
15 0.000
16 0.000
17 0.000
18 0.000
19 2.000
20 0.000
21 2.000
22 2.000
23 2.000
24 0.000
25 0.000
26 0.000
27 0.000
28 0.000
29 0.000
30 0.000
31 0.000
32 0.000
33 0.000
34 0.000
35 0.000
36 1.000
37 0.000
38 0.000
39 0.000
40 0.000
41 0.000
42 0.000
43 0.000
44 2.000
45 2.000
46 0.000
47 0.000
48 5.000
49 5.000
50 2.000
51 0.000
52 0.000
53 0.000
VEHICLE_SECTION
1 70.000 700.000 0.800
2 100.000 1500.000 1.000
3 130.000 2600.000 1.200
4 70.000 700.000 0.800
5 100.000 1500.000 1.000
6 130.000 2600.000 1.200
7 70.000 700.000 0.800
8 100.000 1500.000 1.000
EOF
