NAME: augerat_A_n60_k9
CUSTOMERS: 59
VEHICLES: 10
NODE_COORD_SECTION
0 27.000000 93.000000
1 33.000000 27.000000
2 29.000000 39.000000
3 7.000000 81.000000
4 1.000000 59.000000
5 49.000000 9.000000
6 21.000000 53.000000
7 79.000000 89.000000
8 81.000000 83.000000
9 85.000000 11.000000
10 45.000000 9.000000
11 7.000000 65.000000
12 95.000000 27.000000
13 81.000000 85.000000
14 37.000000 81.000000
15 69.000000 69.000000
16 15.000000 95.000000
17 89.000000 75.000000
18 33.000000 93.000000
19 57.000000 83.000000
20 11.000000 95.000000
21 3.000000 57.000000
22 45.000000 11.000000
23 43.000000 61.000000
24 35.000000 43.000000
25 19.000000 83.000000
26 83.000000 69.000000
27 85.000000 77.000000
28 19.000000 39.000000
29 83.000000 87.000000
30 1.000000 13.000000
31 15.000000 39.000000
32 83.000000 17.000000
33 41.000000 97.000000
34 31.000000 61.000000
35 59.000000 69.000000
36 29.000000 15.000000
37 93.000000 83.000000
38 63.000000 97.000000
39 65.000000 57.000000
40 15.000000 69.000000
41 31.000000 97.000000
42 57.000000 9.000000
43 85.000000 37.000000
44 21.000000 29.000000
45 53.000000 11.000000
46 15.000000 77.000000
47 41.000000 69.000000
48 45.000000 17.000000
49 13.000000 25.000000
50 63.000000 57.000000
51 95.000000 5.000000
52 55.000000 91.000000
53 3.000000 31.000000
54 47.000000 7.000000
55 61.000000 69.000000
56 85.000000 35.000000
57 89.000000 81.000000
58 45.000000 47.000000
59 65.000000 93.000000
DEMAND_SECTION
0 0.000000
1 16.000000
2 2.000000
3 7.000000
4 11.000000
5 9.000000
6 17.000000
7 21.000000
8 23.000000
9 10.000000
10 6.000000
11 19.000000
12 18.000000
13 20.000000
14 13.000000
15 5.000000
16 11.000000
17 24.000000
18 2.000000
19 3.000000
20 1.000000
21 5.000000
22 20.000000
23 23.000000
24 24.000000
25 18.000000
26 19.000000
27 2.000000
28 17.000000
29 17.000000
30 9.000000
31 11.000000
32 2.000000
33 6.000000
34 9.000000
35 5.000000
36 9.000000
37 2.000000
38 14.000000
39 19.000000
40 11.000000
41 21.000000
42 20.000000
43 21.000000
44 18.000000
45 48.000000
46 1.000000
47 17.000000
48 42.000000
49 2.000000
50 4.000000
51 24.000000
52 18.000000
53 21.000000
54 11.000000
55 9.000000
56 18.000000
57 22.000000
58 9.000000
59 23.000000
PRIORITY_SECTION
0 0.000
1 0.000
2 2.000
3 1.000
4 0.000
5 0.000
6 0.000
7 2.000
8 1.000
9 5.000
10 0.000
11 0.000
12 0.000
13 0.000
14 0.000
15 0.000
16 0.000
17 0.000
18 0.000
19 2.000
20 0.000
21 2.000
22 2.000
23 2.000
24 0.000
25 0.000
26 0.000
27 0.000
28 0.000
29 0.000
30 0.000
31 0.000
32 0.000
33 0.000
34 0.000
35 0.000
36 1.000
37 0.000
38 0.000
39 0.000
40 0.000
41 0.000
42 0.000
43 0.000
44 2.000
45 2.000
46 0.000
47 0.000
48 5.000
49 5.000
50 2.000
51 0.000
52 0.000
53 0.000
54 0.000
55 0.000
56 0.000
57 0.000
58 1.000
59 0.000
VEHICLE_SECTION
1 70.000 700.000 0.800
2 100.000 1500.000 1.000
3 130.000 2600.000 1.200
4 70.000 700.000 0.800
5 100.000 1500.000 1.000
6 130.000 2600.000 1.200
7 70.000 700.000 0.800
8 100.000 1500.000 1.000
9 130.000 2600.000 1.200
10 70.000 700.000 0.800
EOF
