NAME: augerat_A_n32_k5
CUSTOMERS: 31
VEHICLES: 8
NODE_COORD_SECTION
0 82.000000 76.000000
1 96.000000 44.000000
2 50.000000 5.000000
3 49.000000 8.000000
4 13.000000 7.000000
5 29.000000 89.000000
6 58.000000 30.000000
7 84.000000 39.000000
8 14.000000 24.000000
9 2.000000 39.000000
10 3.000000 82.000000
11 5.000000 10.000000
12 98.000000 52.000000
13 84.000000 25.000000
14 61.000000 59.000000
15 1.000000 65.000000
16 88.000000 51.000000
17 91.000000 2.000000
18 19.000000 32.000000
19 93.000000 3.000000
20 50.000000 93.000000
21 98.000000 14.000000
22 5.000000 42.000000
23 42.000000 9.000000
24 61.000000 62.000000
25 9.000000 97.000000
26 80.000000 55.000000
27 57.000000 69.000000
28 23.000000 15.000000
29 20.000000 70.000000
30 85.000000 60.000000
31 98.000000 5.000000
DEMAND_SECTION
0 0.000000
1 19.000000
2 21.000000
3 6.000000
4 19.000000
5 7.000000
6 12.000000
7 16.000000
8 6.000000
9 16.000000
10 8.000000
11 14.000000
12 21.000000
13 16.000000
14 3.000000
15 22.000000
16 18.000000
17 19.000000
18 1.000000
19 24.000000
20 8.000000
21 12.000000
22 4.000000
23 8.000000
24 24.000000
25 24.000000
26 2.000000
27 20.000000
28 15.000000
29 2.000000
30 14.000000
31 9.000000
PRIORITY_SECTION
0 0.000
1 0.000
2 2.000
3 1.000
4 0.000
5 0.000
6 0.000
7 2.000
8 1.000
9 5.000
10 0.000
11 0.000
12 0.000
13 0.000
14 0.000
15 0.000
16 0.000
17 0.000
18 0.000
19 2.000
20 0.000
21 2.000
22 2.000
23 2.000
24 0.000
25 0.000
26 0.000
27 0.000
28 0.000
29 0.000
30 0.000
31 0.000
VEHICLE_SECTION
1 70.000 700.000 0.800
2 100.000 1500.000 1.000
3 130.000 2600.000 1.200
4 70.000 700.000 0.800
5 100.000 1500.000 1.000
6 130.000 2600.000 1.200
7 70.000 700.000 0.800
8 100.000 1500.000 1.000
EOF
