NAME: augerat_A_n45_k6
CUSTOMERS: 44
VEHICLES: 8
NODE_COORD_SECTION
0 31.000000 73.000000
1 11.000000 67.000000
2 52.000000 96.000000
3 81.000000 29.000000
4 97.000000 62.000000
5 71.000000 5.000000
6 6.000000 56.000000
7 48.000000 50.000000
8 91.000000 17.000000
9 49.000000 68.000000
10 85.000000 29.000000
11 11.000000 16.000000
12 74.000000 98.000000
13 56.000000 37.000000
14 13.000000 81.000000
15 66.000000 80.000000
16 96.000000 55.000000
17 36.000000 17.000000
18 32.000000 23.000000
19 6.000000 13.000000
20 64.000000 30.000000
21 87.000000 5.000000
22 75.000000 61.000000
23 40.000000 72.000000
24 1.000000 44.000000
25 60.000000 95.000000
26 27.000000 49.000000
27 15.000000 33.000000
28 46.000000 53.000000
29 28.000000 43.000000
30 3.000000 9.000000
31 1.000000 100.000000
32 53.000000 46.000000
33 98.000000 8.000000
34 6.000000 25.000000
35 7.000000 81.000000
36 96.000000 88.000000
37 2.000000 35.000000
38 32.000000 94.000000
39 95.000000 94.000000
40 9.000000 11.000000
41 96.000000 16.000000
42 90.000000 68.000000
43 33.000000 31.000000
44 6.000000 59.000000
DEMAND_SECTION
0 0.000000
1 19.000000
2 2.000000
3 12.000000
4 20.000000
5 6.000000
6 17.000000
7 8.000000
8 14.000000
9 2.000000
10 8.000000
11 5.000000
12 7.000000
13 22.000000
14 14.000000
15 17.000000
16 23.000000
17 15.000000
18 21.000000
19 2.000000
20 24.000000
21 10.000000
22 20.000000
23 6.000000
24 21.000000
25 10.000000
26 6.000000
27 13.000000
28 21.000000
29 24.000000
30 11.000000
31 16.000000
32 8.000000
33 11.000000
34 11.000000
35 22.000000
36 17.000000
37 22.000000
38 17.000000
39 8.000000
40 23.000000
41 5.000000
42 3.000000
43 18.000000
44 12.000000
PRIORITY_SECTION
0 0.000
1 0.000
2 2.000
3 1.000
4 0.000
5 0.000
6 0.000
7 2.000
8 1.000
9 5.000
10 0.000
11 0.000
12 0.000
13 0.000
14 0.000
15 0.000
16 0.000
17 0.000
18 0.000
19 2.000
20 0.000
21 2.000
22 2.000
23 2.000
24 0.000
25 0.000
26 0.000
27 0.000
28 0.000
29 0.000
30 0.000
31 0.000
32 0.000
33 0.000
34 0.000
35 0.000
36 1.000
37 0.000
38 0.000
39 0.000
40 0.000
41 0.000
42 0.000
43 0.000
44 2.000
VEHICLE_SECTION
1 70.000 700.000 0.800
2 100.000 1500.000 1.000
3 130.000 2600.000 1.200
4 70.000 700.000 0.800
5 100.000 1500.000 1.000
6 130.000 2600.000 1.200
7 70.000 700.000 0.800
8 100.000 1500.000 1.000
EOF
