NAME: augerat_A_n80_k10
CUSTOMERS: 79
VEHICLES: 11
NODE_COORD_SECTION
0 92.000000 92.000000
1 88.000000 58.000000
2 70.000000 6.000000
3 57.000000 59.000000
4 0.000000 98.000000
5 61.000000 38.000000
6 65.000000 22.000000
7 91.000000 52.000000
8 59.000000 2.000000
9 3.000000 54.000000
10 95.000000 38.000000
11 80.000000 28.000000
12 66.000000 42.000000
13 79.000000 74.000000
14 99.000000 25.000000
15 20.000000 43.000000
16 40.000000 3.000000
17 50.000000 42.000000
18 97.000000 0.000000
19 21.000000 19.000000
20 36.000000 21.000000
21 100.000000 61.000000
22 11.000000 85.000000
23 69.000000 35.000000
24 69.000000 22.000000
25 29.000000 35.000000
26 14.000000 9.000000
27 50.000000 33.000000
28 89.000000 17.000000
29 57.000000 44.000000
30 60.000000 25.000000
31 48.000000 42.000000
32 17.000000 93.000000
33 21.000000 50.000000
34 77.000000 18.000000
35 2.000000 4.000000
36 63.000000 83.000000
37 68.000000 6.000000
38 41.000000 95.000000
39 48.000000 54.000000
40 98.000000 73.000000
41 26.000000 38.000000
42 69.000000 76.000000
43 40.000000 1.000000
44 65.000000 41.000000
45 14.000000 86.000000
46 32.000000 39.000000
47 14.000000 24.000000
48 96.000000 5.000000
49 82.000000 98.000000
50 23.000000 85.000000
51 63.000000 69.000000
52 87.000000 19.000000
53 56.000000 75.000000
54 15.000000 63.000000
55 10.000000 45.000000
56 7.000000 30.000000
57 31.000000 11.000000
58 36.000000 93.000000
59 50.000000 31.000000
60 49.000000 52.000000
61 39.000000 10.000000
62 76.000000 40.000000
63 83.000000 34.000000
64 33.000000 51.000000
65 0.000000 15.000000
66 52.000000 82.000000
67 52.000000 82.000000
68 46.000000 6.000000
69 3.000000 26.000000
70 46.000000 80.000000
71 94.000000 30.000000
72 26.000000 76.000000
73 75.000000 92.000000
74 57.000000 51.000000
75 34.000000 21.000000
76 28.000000 80.000000
77 59.000000 66.000000
78 51.000000 16.000000
79 87.000000 11.000000
DEMAND_SECTION
0 0.000000
1 24.000000
2 22.000000
3 23.000000
4 5.000000
5 11.000000
6 23.000000
7 26.000000
8 9.000000
9 23.000000
10 9.000000
11 14.000000
12 16.000000
13 12.000000
14 2.000000
15 2.000000
16 6.000000
17 20.000000
18 26.000000
19 12.000000
20 15.000000
21 13.000000
22 26.000000
23 17.000000
24 7.000000
25 12.000000
26 4.000000
27 4.000000
28 20.000000
29 10.000000
30 9.000000
31 2.000000
32 9.000000
33 1.000000
34 2.000000
35 2.000000
36 12.000000
37 14.000000
38 23.000000
39 21.000000
40 13.000000
41 13.000000
42 23.000000
43 3.000000
44 6.000000
45 23.000000
46 11.000000
47 2.000000
48 7.000000
49 13.000000
50 10.000000
51 3.000000
52 6.000000
53 13.000000
54 2.000000
55 14.000000
56 7.000000
57 21.000000
58 7.000000
59 22.000000
60 13.000000
61 22.000000
62 18.000000
63 22.000000
64 6.000000
65 2.000000
66 11.000000
67 5.000000
68 9.000000
69 9.000000
70 5.000000
71 12.000000
72 2.000000
73 12.000000
74 19.000000
75 6.000000
76 14.000000
77 2.000000
78 2.000000
79 24.000000
PRIORITY_SECTION
0 0.000
1 0.000
2 2.000
3 1.000
4 0.000
5 0.000
6 0.000
7 2.000
8 1.000
9 5.000
10 0.000
11 0.000
12 0.000
13 0.000
14 0.000
15 0.000
16 0.000
17 0.000
18 0.000
19 2.000
20 0.000
21 2.000
22 2.000
23 2.000
24 0.000
25 0.000
26 0.000
27 0.000
28 0.000
29 0.000
30 0.000
31 0.000
32 0.000
33 0.000
34 0.000
35 0.000
36 1.000
37 0.000
38 0.000
39 0.000
40 0.000
41 0.000
42 0.000
43 0.000
44 2.000
45 2.000
46 0.000
47 0.000
48 5.000
49 5.000
50 2.000
51 0.000
52 0.000
53 0.000
54 0.000
55 0.000
56 0.000
57 0.000
58 1.000
59 0.000
60 0.000
61 5.000
62 0.000
63 0.000
64 0.000
65 0.000
66 0.000
67 0.000
68 0.000
69 5.000
70 0.000
71 0.000
72 0.000
73 0.000
74 0.000
75 0.000
76 2.000
77 1.000
78 0.000
79 1.000
VEHICLE_SECTION
1 70.000 700.000 0.800
2 100.000 1500.000 1.000
3 130.000 2600.000 1.200
4 70.000 700.000 0.800
5 100.000 1500.000 1.000
6 130.000 2600.000 1.200
7 70.000 700.000 0.800
8 100.000 1500.000 1.000
9 130.000 2600.000 1.200
10 70.000 700.000 0.800
11 100.000 1500.000 1.000
EOF
