NAME: augerat_A_n37_k5
CUSTOMERS: 36
VEHICLES: 8
NODE_COORD_SECTION
0 38.000000 46.000000
1 59.000000 46.000000
2 96.000000 42.000000
3 47.000000 61.000000
4 26.000000 15.000000
5 66.000000 6.000000
6 96.000000 7.000000
7 37.000000 25.000000
8 68.000000 92.000000
9 78.000000 84.000000
10 82.000000 28.000000
11 93.000000 90.000000
12 74.000000 42.000000
13 60.000000 20.000000
14 78.000000 58.000000
15 36.000000 48.000000
16 45.000000 36.000000
17 73.000000 57.000000
18 10.000000 91.000000
19 98.000000 51.000000
20 92.000000 62.000000
21 43.000000 42.000000
22 53.000000 25.000000
23 78.000000 65.000000
24 72.000000 79.000000
25 37.000000 88.000000
26 16.000000 73.000000
27 75.000000 96.000000
28 11.000000 66.000000
29 9.000000 49.000000
30 25.000000 72.000000
31 8.000000 68.000000
32 12.000000 61.000000
33 50.000000 2.000000
34 26.000000 54.000000
35 18.000000 89.000000
36 22.000000 53.000000
DEMAND_SECTION
0 0.000000
1 16.000000
2 18.000000
3 1.000000
4 13.000000
5 8.000000
6 23.000000
7 7.000000
8 27.000000
9 1.000000
10 3.000000
11 6.000000
12 24.000000
13 19.000000
14 2.000000
15 5.000000
16 16.000000
17 7.000000
18 4.000000
19 22.000000
20 7.000000
21 23.000000
22 16.000000
23 2.000000
24 2.000000
25 9.000000
26 2.000000
27 12.000000
28 1.000000
29 9.000000
30 23.000000
31 6.000000
32 19.000000
33 7.000000
34 7.000000
35 20.000000
36 20.000000
PRIORITY_SECTION
0 0.000
1 0.000
2 2.000
3 1.000
4 0.000
5 0.000
6 0.000
7 2.000
8 1.000
9 5.000
10 0.000
11 0.000
12 0.000
13 0.000
14 0.000
15 0.000
16 0.000
17 0.000
18 0.000
19 2.000
20 0.000
21 2.000
22 2.000
23 2.000
24 0.000
25 0.000
26 0.000
27 0.000
28 0.000
29 0.000
30 0.000
31 0.000
32 0.000
33 0.000
34 0.000
35 0.000
36 1.000
VEHICLE_SECTION
1 70.000 700.000 0.800
2 100.000 1500.000 1.000
3 130.000 2600.000 1.200
4 70.000 700.000 0.800
5 100.000 1500.000 1.000
6 130.000 2600.000 1.200
7 70.000 700.000 0.800
8 100.000 1500.000 1.000
EOF
