NAME: pyvrp_X110_HD
CUSTOMERS: 109
VEHICLES: 13
NODE_COORD_SECTION
0 500.000000 500.000000
1 740.000000 442.000000
2 261.000000 710.000000
3 578.000000 522.000000
4 482.000000 914.000000
5 628.000000 644.000000
6 551.000000 651.000000
7 828.000000 54.000000
8 541.000000 270.000000
9 450.000000 1000.000000
10 521.000000 127.000000
11 738.000000 809.000000
12 323.000000 289.000000
13 803.000000 214.000000
14 556.000000 488.000000
15 758.000000 937.000000
16 875.000000 326.000000
17 113.000000 509.000000
18 491.000000 726.000000
19 415.000000 355.000000
20 946.000000 632.000000
21 136.000000 120.000000
22 117.000000 971.000000
23 817.000000 246.000000
24 491.000000 845.000000
25 454.000000 801.000000
26 676.000000 995.000000
27 145.000000 557.000000
28 166.000000 494.000000
29 977.000000 318.000000
30 363.000000 711.000000
31 164.000000 501.000000
32 833.000000 501.000000
33 444.000000 958.000000
34 828.000000 672.000000
35 714.000000 57.000000
36 51.000000 676.000000
37 922.000000 16.000000
38 673.000000 571.000000
39 211.000000 471.000000
40 590.000000 220.000000
41 305.000000 311.000000
42 953.000000 745.000000
43 154.000000 753.000000
44 918.000000 227.000000
45 819.000000 671.000000
46 675.000000 667.000000
47 617.000000 176.000000
48 706.000000 179.000000
49 512.000000 443.000000
50 302.000000 453.000000
51 753.000000 786.000000
52 331.000000 450.000000
53 765.000000 990.000000
54 249.000000 360.000000
55 292.000000 887.000000
56 371.000000 804.000000
57 786.000000 186.000000
58 382.000000 284.000000
59 44.000000 552.000000
60 107.000000 895.000000
61 108.000000 928.000000
62 523.000000 264.000000
63 397.000000 120.000000
64 25.000000 769.000000
65 98.000000 623.000000
66 946.000000 978.000000
67 815.000000 696.000000
68 314.000000 361.000000
69 447.000000 695.000000
70 878.000000 243.000000
71 341.000000 648.000000
72 363.000000 0.000000
73 675.000000 83.000000
74 998.000000 520.000000
75 98.000000 111.000000
76 267.000000 902.000000
77 628.000000 746.000000
78 940.000000 409.000000
79 786.000000 488.000000
80 323.000000 674.000000
81 986.000000 151.000000
82 790.000000 150.000000
83 180.000000 944.000000
84 533.000000 816.000000
85 750.000000 789.000000
86 589.000000 125.000000
87 640.000000 911.000000
88 99.000000 216.000000
89 754.000000 659.000000
90 828.000000 357.000000
91 597.000000 587.000000
92 929.000000 655.000000
93 159.000000 781.000000
94 955.000000 6.000000
95 63.000000 435.000000
96 130.000000 302.000000
97 954.000000 687.000000
98 866.000000 879.000000
99 131.000000 686.000000
100 519.000000 220.000000
101 454.000000 928.000000
102 415.000000 916.000000
103 468.000000 833.000000
104 109.000000 859.000000
105 806.000000 568.000000
106 907.000000 703.000000
107 821.000000 135.000000
108 622.000000 561.000000
109 482.000000 689.000000
DEMAND_SECTION
0 0.000000
1 8.000000
2 10.000000
3 8.000000
4 5.000000
5 10.000000
6 5.000000
7 9.000000
8 10.000000
9 6.000000
10 5.000000
11 10.000000
12 5.000000
13 9.000000
14 10.000000
15 7.000000
16 9.000000
17 7.000000
18 8.000000
19 5.000000
20 8.000000
21 10.000000
22 6.000000
23 8.000000
24 7.000000
25 6.000000
26 7.000000
27 5.000000
28 10.000000
29 10.000000
30 5.000000
31 7.000000
32 5.000000
33 10.000000
34 6.000000
35 7.000000
36 9.000000
37 7.000000
38 7.000000
39 6.000000
40 7.000000
41 10.000000
42 8.000000
43 10.000000
44 6.000000
45 10.000000
46 8.000000
47 6.000000
48 10.000000
49 8.000000
50 10.000000
51 10.000000
52 6.000000
53 5.000000
54 5.000000
55 10.000000
56 5.000000
57 10.000000
58 8.000000
59 8.000000
60 5.000000
61 6.000000
62 7.000000
63 8.000000
64 9.000000
65 10.000000
66 8.000000
67 5.000000
68 6.000000
69 10.000000
70 8.000000
71 5.000000
72 10.000000
73 9.000000
74 7.000000
75 6.000000
76 7.000000
77 7.000000
78 6.000000
79 9.000000
80 6.000000
81 10.000000
82 9.000000
83 10.000000
84 5.000000
85 5.000000
86 7.000000
87 8.000000
88 10.000000
89 10.000000
90 10.000000
91 8.000000
92 9.000000
93 6.000000
94 6.000000
95 5.000000
96 6.000000
97 8.000000
98 5.000000
99 9.000000
100 5.000000
101 5.000000
102 6.000000
103 6.000000
104 5.000000
105 5.000000
106 7.000000
107 7.000000
108 9.000000
109 9.000000
PRIORITY_SECTION
0 0.000
1 0.000
2 2.000
3 1.000
4 0.000
5 0.000
6 0.000
7 2.000
8 1.000
9 5.000
10 0.000
11 0.000
12 0.000
13 0.000
14 0.000
15 0.000
16 0.000
17 0.000
18 0.000
19 2.000
20 0.000
21 2.000
22 2.000
23 2.000
24 0.000
25 0.000
26 0.000
27 0.000
28 0.000
29 0.000
30 0.000
31 0.000
32 0.000
33 0.000
34 0.000
35 0.000
36 1.000
37 0.000
38 0.000
39 0.000
40 0.000
41 0.000
42 0.000
43 0.000
44 2.000
45 2.000
46 0.000
47 0.000
48 5.000
49 5.000
50 2.000
51 0.000
52 0.000
53 0.000
54 0.000
55 0.000
56 0.000
57 0.000
58 1.000
59 0.000
60 0.000
61 5.000
62 0.000
63 0.000
64 0.000
65 0.000
66 0.000
67 0.000
68 0.000
69 5.000
70 0.000
71 0.000
72 0.000
73 0.000
74 0.000
75 0.000
76 2.000
77 1.000
78 0.000
79 1.000
80 0.000
81 0.000
82 2.000
83 0.000
84 0.000
85 0.000
86 0.000
87 0.000
88 0.000
89 5.000
90 0.000
91 0.000
92 0.000
93 0.000
94 1.000
95 0.000
96 0.000
97 0.000
98 0.000
99 1.000
100 0.000
101 0.000
102 0.000
103 0.000
104 1.000
105 0.000
106 0.000
107 0.000
108 2.000
109 0.000
VEHICLE_SECTION
1 30.000 0.000 59.000
2 30.000 0.000 59.000
3 36.000 0.000 67.000
4 42.000 0.000 77.000
5 50.000 0.000 88.000
6 60.000 0.000 100.000
7 71.000 0.000 113.000
8 71.000 0.000 113.000
9 85.000 0.000 129.000
10 85.000 0.000 129.000
11 120.000 0.000 166.000
12 101.000 0.000 146.000
13 101.000 0.000 146.000
EOF
