NAME: pyvrp_X120_FSMF
CUSTOMERS: 119
VEHICLES: 12
NODE_COORD_SECTION
0 0.000000 0.000000
1 927.000000 318.000000
2 319.000000 475.000000
3 471.000000 281.000000
4 894.000000 615.000000
5 712.000000 832.000000
6 677.000000 210.000000
7 336.000000 967.000000
8 490.000000 360.000000
9 367.000000 685.000000
10 153.000000 169.000000
11 799.000000 63.000000
12 247.000000 455.000000
13 492.000000 585.000000
14 131.000000 701.000000
15 309.000000 721.000000
16 210.000000 256.000000
17 511.000000 753.000000
18 447.000000 796.000000
19 394.000000 856.000000
20 131.000000 13.000000
21 181.000000 425.000000
22 892.000000 585.000000
23 161.000000 651.000000
24 964.000000 365.000000
25 82.000000 353.000000
26 706.000000 842.000000
27 793.000000 53.000000
28 364.000000 841.000000
29 126.000000 306.000000
30 86.000000 477.000000
31 51.000000 277.000000
32 192.000000 360.000000
33 52.000000 568.000000
34 682.000000 45.000000
35 778.000000 300.000000
36 10.000000 737.000000
37 928.000000 438.000000
38 95.000000 240.000000
39 391.000000 368.000000
40 586.000000 170.000000
41 645.000000 731.000000
42 381.000000 396.000000
43 387.000000 491.000000
44 388.000000 753.000000
45 429.000000 276.000000
46 547.000000 989.000000
47 840.000000 945.000000
48 88.000000 969.000000
49 331.000000 421.000000
50 55.000000 132.000000
51 904.000000 771.000000
52 63.000000 190.000000
53 731.000000 528.000000
54 320.000000 84.000000
55 308.000000 276.000000
56 891.000000 182.000000
57 836.000000 473.000000
58 209.000000 741.000000
59 864.000000 533.000000
60 852.000000 600.000000
61 180.000000 150.000000
62 544.000000 140.000000
63 956.000000 881.000000
64 432.000000 487.000000
65 129.000000 968.000000
66 597.000000 962.000000
67 51.000000 423.000000
68 827.000000 605.000000
69 776.000000 619.000000
70 354.000000 297.000000
71 311.000000 129.000000
72 552.000000 106.000000
73 24.000000 318.000000
74 148.000000 944.000000
75 502.000000 869.000000
76 396.000000 492.000000
77 815.000000 500.000000
78 425.000000 338.000000
79 178.000000 511.000000
80 168.000000 274.000000
81 775.000000 603.000000
82 481.000000 465.000000
83 281.000000 777.000000
84 216.000000 211.000000
85 784.000000 740.000000
86 127.000000 992.000000
87 544.000000 117.000000
88 92.000000 170.000000
89 846.000000 755.000000
90 614.000000 326.000000
91 180.000000 372.000000
92 720.000000 252.000000
93 262.000000 291.000000
94 171.000000 186.000000
95 868.000000 613.000000
96 291.000000 119.000000
97 427.000000 974.000000
98 481.000000 557.000000
99 403.000000 645.000000
100 819.000000 502.000000
101 915.000000 919.000000
102 581.000000 85.000000
103 527.000000 743.000000
104 953.000000 893.000000
105 955.000000 912.000000
106 269.000000 924.000000
107 216.000000 84.000000
108 601.000000 952.000000
109 441.000000 439.000000
110 170.000000 949.000000
111 614.000000 92.000000
112 439.000000 212.000000
113 413.000000 509.000000
114 545.000000 336.000000
115 50.000000 806.000000
116 166.000000 86.000000
117 658.000000 870.000000
118 122.000000 511.000000
119 178.000000 170.000000
DEMAND_SECTION
0 0.000000
1 1.000000
2 1.000000
3 1.000000
4 1.000000
5 1.000000
6 1.000000
7 1.000000
8 1.000000
9 1.000000
10 1.000000
11 1.000000
12 1.000000
13 1.000000
14 1.000000
15 1.000000
16 1.000000
17 1.000000
18 1.000000
19 1.000000
20 1.000000
21 1.000000
22 1.000000
23 1.000000
24 1.000000
25 1.000000
26 1.000000
27 1.000000
28 1.000000
29 1.000000
30 1.000000
31 1.000000
32 1.000000
33 1.000000
34 1.000000
35 1.000000
36 1.000000
37 1.000000
38 1.000000
39 1.000000
40 1.000000
41 1.000000
42 1.000000
43 1.000000
44 1.000000
45 1.000000
46 1.000000
47 1.000000
48 1.000000
49 1.000000
50 1.000000
51 1.000000
52 1.000000
53 1.000000
54 1.000000
55 1.000000
56 1.000000
57 1.000000
58 1.000000
59 1.000000
60 1.000000
61 1.000000
62 1.000000
63 1.000000
64 1.000000
65 1.000000
66 1.000000
67 1.000000
68 1.000000
69 1.000000
70 1.000000
71 1.000000
72 1.000000
73 1.000000
74 1.000000
75 1.000000
76 1.000000
77 1.000000
78 1.000000
79 1.000000
80 1.000000
81 1.000000
82 1.000000
83 1.000000
84 1.000000
85 1.000000
86 1.000000
87 1.000000
88 1.000000
89 1.000000
90 1.000000
91 1.000000
92 1.000000
93 1.000000
94 1.000000
95 1.000000
96 1.000000
97 1.000000
98 1.000000
99 1.000000
100 1.000000
101 1.000000
102 1.000000
103 1.000000
104 1.000000
105 1.000000
106 1.000000
107 1.000000
108 1.000000
109 1.000000
110 1.000000
111 1.000000
112 1.000000
113 1.000000
114 1.000000
115 1.000000
116 1.000000
117 1.000000
118 1.000000
119 1.000000
PRIORITY_SECTION
0 0.000
1 0.000
2 2.000
3 1.000
4 0.000
5 0.000
6 0.000
7 2.000
8 1.000
9 5.000
10 0.000
11 0.000
12 0.000
13 0.000
14 0.000
15 0.000
16 0.000
17 0.000
18 0.000
19 2.000
20 0.000
21 2.000
22 2.000
23 2.000
24 0.000
25 0.000
26 0.000
27 0.000
28 0.000
29 0.000
30 0.000
31 0.000
32 0.000
33 0.000
34 0.000
35 0.000
36 1.000
37 0.000
38 0.000
39 0.000
40 0.000
41 0.000
42 0.000
43 0.000
44 2.000
45 2.000
46 0.000
47 0.000
48 5.000
49 5.000
50 2.000
51 0.000
52 0.000
53 0.000
54 0.000
55 0.000
56 0.000
57 0.000
58 1.000
59 0.000
60 0.000
61 5.000
62 0.000
63 0.000
64 0.000
65 0.000
66 0.000
67 0.000
68 0.000
69 5.000
70 0.000
71 0.000
72 0.000
73 0.000
74 0.000
75 0.000
76 2.000
77 1.000
78 0.000
79 1.000
80 0.000
81 0.000
82 2.000
83 0.000
84 0.000
85 0.000
86 0.000
87 0.000
88 0.000
89 5.000
90 0.000
91 0.000
92 0.000
93 0.000
94 1.000
95 0.000
96 0.000
97 0.000
98 0.000
99 1.000
100 0.000
101 0.000
102 0.000
103 0.000
104 1.000
105 0.000
106 0.000
107 0.000
108 2.000
109 0.000
110 2.000
111 0.000
112 0.000
113 0.000
114 5.000
115 0.000
116 2.000
117 0.000
118 0.000
119 0.000
VEHICLE_SECTION
1 9.000 97300.000 100.000
2 9.000 97300.000 100.000
3 9.000 97300.000 100.000
4 9.000 97300.000 100.000
5 9.000 97300.000 100.000
6 9.000 97300.000 100.000
7 9.000 97300.000 100.000
8 9.000 97300.000 100.000
9 9.000 97300.000 100.000
10 9.000 97300.000 100.000
11 37.000 520900.000 100.000
12 37.000 520900.000 100.000
EOF
