NAME: pyvrp_X115_HVRP
CUSTOMERS: 114
VEHICLES: 18
NODE_COORD_SECTION
0 500.000000 500.000000
1 865.000000 693.000000
2 633.000000 220.000000
3 173.000000 361.000000
4 89.000000 714.000000
5 350.000000 102.000000
6 301.000000 24.000000
7 834.000000 663.000000
8 841.000000 997.000000
9 394.000000 790.000000
10 276.000000 488.000000
11 779.000000 312.000000
12 939.000000 66.000000
13 595.000000 462.000000
14 940.000000 964.000000
15 459.000000 459.000000
16 432.000000 280.000000
17 379.000000 338.000000
18 128.000000 439.000000
19 401.000000 22.000000
20 69.000000 887.000000
21 499.000000 657.000000
22 633.000000 46.000000
23 713.000000 182.000000
24 806.000000 525.000000
25 540.000000 169.000000
26 696.000000 559.000000
27 577.000000 888.000000
28 298.000000 725.000000
29 410.000000 644.000000
30 512.000000 889.000000
31 756.000000 352.000000
32 405.000000 407.000000
33 850.000000 365.000000
34 731.000000 588.000000
35 90.000000 553.000000
36 691.000000 383.000000
37 926.000000 631.000000
38 955.000000 351.000000
39 998.000000 736.000000
40 921.000000 854.000000
41 532.000000 257.000000
42 238.000000 513.000000
43 976.000000 912.000000
44 565.000000 912.000000
45 893.000000 74.000000
46 590.000000 548.000000
47 99.000000 355.000000
48 294.000000 39.000000
49 58.000000 429.000000
50 471.000000 573.000000
51 520.000000 109.000000
52 486.000000 611.000000
53 409.000000 682.000000
54 296.000000 843.000000
55 970.000000 479.000000
56 717.000000 390.000000
57 152.000000 711.000000
58 934.000000 255.000000
59 257.000000 539.000000
60 270.000000 31.000000
61 823.000000 409.000000
62 203.000000 849.000000
63 770.000000 627.000000
64 630.000000 581.000000
65 786.000000 186.000000
66 380.000000 300.000000
67 973.000000 847.000000
68 985.000000 975.000000
69 732.000000 465.000000
70 690.000000 428.000000
71 910.000000 568.000000
72 725.000000 539.000000
73 181.000000 186.000000
74 814.000000 694.000000
75 702.000000 927.000000
76 946.000000 492.000000
77 984.000000 305.000000
78 385.000000 696.000000
79 48.000000 323.000000
80 944.000000 440.000000
81 813.000000 293.000000
82 490.000000 676.000000
83 729.000000 923.000000
84 719.000000 883.000000
85 675.000000 637.000000
86 167.000000 14.000000
87 98.000000 159.000000
88 476.000000 709.000000
89 402.000000 339.000000
90 911.000000 734.000000
91 590.000000 230.000000
92 122.000000 698.000000
93 154.000000 418.000000
94 165.000000 998.000000
95 217.000000 599.000000
96 766.000000 21.000000
97 922.000000 407.000000
98 831.000000 607.000000
99 70.000000 494.000000
100 220.000000 740.000000
101 19.000000 855.000000
102 759.000000 507.000000
103 818.000000 409.000000
104 503.000000 304.000000
105 595.000000 827.000000
106 254.000000 282.000000
107 205.000000 607.000000
108 331.000000 57.000000
109 118.000000 404.000000
110 576.000000 658.000000
111 558.000000 611.000000
112 629.000000 732.000000
113 893.000000 182.000000
114 435.000000 1000.000000
DEMAND_SECTION
0 0.000000
1 86.000000
2 98.000000
3 89.000000
4 91.000000
5 74.000000
6 87.000000
7 65.000000
8 62.000000
9 60.000000
10 99.000000
11 96.000000
12 79.000000
13 6.000000
14 10.000000
15 3.000000
16 8.000000
17 8.000000
18 10.000000
19 1.000000
20 9.000000
21 6.000000
22 4.000000
23 5.000000
24 6.000000
25 3.000000
26 9.000000
27 7.000000
28 7.000000
29 5.000000
30 2.000000
31 4.000000
32 8.000000
33 8.000000
34 1.000000
35 4.000000
36 5.000000
37 7.000000
38 8.000000
39 9.000000
40 1.000000
41 8.000000
42 2.000000
43 2.000000
44 9.000000
45 7.000000
46 8.000000
47 1.000000
48 1.000000
49 9.000000
50 8.000000
51 4.000000
52 7.000000
53 2.000000
54 1.000000
55 3.000000
56 7.000000
57 10.000000
58 2.000000
59 3.000000
60 1.000000
61 2.000000
62 10.000000
63 1.000000
64 4.000000
65 3.000000
66 5.000000
67 6.000000
68 3.000000
69 1.000000
70 9.000000
71 3.000000
72 4.000000
73 1.000000
74 4.000000
75 5.000000
76 1.000000
77 2.000000
78 5.000000
79 10.000000
80 6.000000
81 1.000000
82 6.000000
83 9.000000
84 3.000000
85 5.000000
86 6.000000
87 6.000000
88 10.000000
89 2.000000
90 2.000000
91 5.000000
92 10.000000
93 10.000000
94 5.000000
95 5.000000
96 8.000000
97 5.000000
98 5.000000
99 8.000000
100 5.000000
101 8.000000
102 6.000000
103 8.000000
104 5.000000
105 4.000000
106 10.000000
107 9.000000
108 5.000000
109 5.000000
110 5.000000
111 3.000000
112 8.000000
113 7.000000
114 6.000000
PRIORITY_SECTION
0 0.000
1 0.000
2 2.000
3 1.000
4 0.000
5 0.000
6 0.000
7 2.000
8 1.000
9 5.000
10 0.000
11 0.000
12 0.000
13 0.000
14 0.000
15 0.000
16 0.000
17 0.000
18 0.000
19 2.000
20 0.000
21 2.000
22 2.000
23 2.000
24 0.000
25 0.000
26 0.000
27 0.000
28 0.000
29 0.000
30 0.000
31 0.000
32 0.000
33 0.000
34 0.000
35 0.000
36 1.000
37 0.000
38 0.000
39 0.000
40 0.000
41 0.000
42 0.000
43 0.000
44 2.000
45 2.000
46 0.000
47 0.000
48 5.000
49 5.000
50 2.000
51 0.000
52 0.000
53 0.000
54 0.000
55 0.000
56 0.000
57 0.000
58 1.000
59 0.000
60 0.000
61 5.000
62 0.000
63 0.000
64 0.000
65 0.000
66 0.000
67 0.000
68 0.000
69 5.000
70 0.000
71 0.000
72 0.000
73 0.000
74 0.000
75 0.000
76 2.000
77 1.000
78 0.000
79 1.000
80 0.000
81 0.000
82 2.000
83 0.000
84 0.000
85 0.000
86 0.000
87 0.000
88 0.000
89 5.000
90 0.000
91 0.000
92 0.000
93 0.000
94 1.000
95 0.000
96 0.000
97 0.000
98 0.000
99 1.000
100 0.000
101 0.000
102 0.000
103 0.000
104 1.000
105 0.000
106 0.000
107 0.000
108 2.000
109 0.000
110 2.000
111 0.000
112 0.000
113 0.000
114 5.000
VEHICLE_SECTION
1 54.000 14600.000 58.000
2 54.000 14600.000 58.000
3 54.000 14600.000 58.000
4 54.000 14600.000 58.000
5 54.000 14600.000 58.000
6 54.000 14600.000 58.000
7 54.000 14600.000 58.000
8 54.000 14600.000 58.000
9 54.000 14600.000 58.000
10 54.000 14600.000 58.000
11 322.000 125200.000 147.000
12 131.000 43600.000 100.000
13 131.000 43600.000 100.000
14 131.000 43600.000 100.000
15 131.000 43600.000 100.000
16 131.000 43600.000 100.000
17 131.000 43600.000 100.000
18 131.000 43600.000 100.000
EOF
