NAME: pyvrp_X106_FSMD
CUSTOMERS: 105
VEHICLES: 16
NODE_COORD_SECTION
0 0.000000 0.000000
1 615.000000 190.000000
2 890.000000 200.000000
3 983.000000 684.000000
4 959.000000 743.000000
5 569.000000 146.000000
6 969.000000 841.000000
7 607.000000 256.000000
8 936.000000 274.000000
9 650.000000 221.000000
10 943.000000 547.000000
11 789.000000 172.000000
12 632.000000 209.000000
13 849.000000 163.000000
14 829.000000 283.000000
15 618.000000 147.000000
16 925.000000 627.000000
17 925.000000 192.000000
18 903.000000 460.000000
19 666.000000 368.000000
20 906.000000 622.000000
21 833.000000 185.000000
22 411.000000 136.000000
23 989.000000 691.000000
24 601.000000 221.000000
25 429.000000 500.000000
26 522.000000 218.000000
27 760.000000 346.000000
28 674.000000 183.000000
29 720.000000 99.000000
30 951.000000 705.000000
31 898.000000 154.000000
32 953.000000 661.000000
33 425.000000 212.000000
34 775.000000 159.000000
35 900.000000 649.000000
36 943.000000 290.000000
37 724.000000 315.000000
38 927.000000 705.000000
39 865.000000 817.000000
40 872.000000 161.000000
41 966.000000 478.000000
42 974.000000 694.000000
43 669.000000 159.000000
44 603.000000 140.000000
45 598.000000 122.000000
46 715.000000 230.000000
47 777.000000 693.000000
48 890.000000 231.000000
49 775.000000 230.000000
50 908.000000 849.000000
51 625.000000 138.000000
52 490.000000 185.000000
53 643.000000 163.000000
54 849.000000 183.000000
55 998.000000 675.000000
56 619.000000 495.000000
57 844.000000 67.000000
58 861.000000 276.000000
59 888.000000 679.000000
60 641.000000 141.000000
61 869.000000 766.000000
62 495.000000 244.000000
63 852.000000 110.000000
64 976.000000 143.000000
65 921.000000 783.000000
66 688.000000 211.000000
67 857.000000 199.000000
68 758.000000 636.000000
69 990.000000 213.000000
70 973.000000 806.000000
71 748.000000 240.000000
72 737.000000 95.000000
73 933.000000 664.000000
74 770.000000 172.000000
75 616.000000 250.000000
76 641.000000 146.000000
77 867.000000 199.000000
78 544.000000 327.000000
79 711.000000 277.000000
80 893.000000 778.000000
81 992.000000 868.000000
82 685.000000 11.000000
83 869.000000 204.000000
84 646.000000 260.000000
85 849.000000 185.000000
86 918.000000 400.000000
87 645.000000 144.000000
88 923.000000 339.000000
89 931.000000 686.000000
90 582.000000 212.000000
91 1000.000000 309.000000
92 572.000000 192.000000
93 676.000000 183.000000
94 989.000000 59.000000
95 798.000000 642.000000
96 582.000000 39.000000
97 686.000000 188.000000
98 995.000000 720.000000
99 802.000000 185.000000
100 603.000000 126.000000
101 657.000000 185.000000
102 574.000000 195.000000
103 661.000000 174.000000
104 614.000000 195.000000
105 961.000000 162.000000
DEMAND_SECTION
0 0.000000
1 81.000000
2 64.000000
3 51.000000
4 61.000000
5 71.000000
6 83.000000
7 92.000000
8 66.000000
9 92.000000
10 78.000000
11 98.000000
12 88.000000
13 70.000000
14 72.000000
15 92.000000
16 84.000000
17 51.000000
18 81.000000
19 71.000000
20 98.000000
21 70.000000
22 53.000000
23 76.000000
24 83.000000
25 83.000000
26 77.000000
27 82.000000
28 88.000000
29 58.000000
30 97.000000
31 53.000000
32 52.000000
33 89.000000
34 87.000000
35 50.000000
36 73.000000
37 58.000000
38 100.000000
39 59.000000
40 67.000000
41 75.000000
42 65.000000
43 80.000000
44 65.000000
45 63.000000
46 59.000000
47 75.000000
48 56.000000
49 76.000000
50 83.000000
51 85.000000
52 96.000000
53 58.000000
54 50.000000
55 54.000000
56 81.000000
57 82.000000
58 99.000000
59 67.000000
60 88.000000
61 92.000000
62 97.000000
63 50.000000
64 62.000000
65 59.000000
66 83.000000
67 86.000000
68 86.000000
69 55.000000
70 99.000000
71 88.000000
72 99.000000
73 80.000000
74 98.000000
75 87.000000
76 81.000000
77 58.000000
78 57.000000
79 87.000000
80 50.000000
81 96.000000
82 63.000000
83 75.000000
84 79.000000
85 100.000000
86 99.000000
87 95.000000
88 57.000000
89 59.000000
90 94.000000
91 91.000000
92 85.000000
93 95.000000
94 50.000000
95 53.000000
96 66.000000
97 56.000000
98 63.000000
99 86.000000
100 71.000000
101 50.000000
102 65.000000
103 78.000000
104 56.000000
105 72.000000
PRIORITY_SECTION
0 0.000
1 0.000
2 2.000
3 1.000
4 0.000
5 0.000
6 0.000
7 2.000
8 1.000
9 5.000
10 0.000
11 0.000
12 0.000
13 0.000
14 0.000
15 0.000
16 0.000
17 0.000
18 0.000
19 2.000
20 0.000
21 2.000
22 2.000
23 2.000
24 0.000
25 0.000
26 0.000
27 0.000
28 0.000
29 0.000
30 0.000
31 0.000
32 0.000
33 0.000
34 0.000
35 0.000
36 1.000
37 0.000
38 0.000
39 0.000
40 0.000
41 0.000
42 0.000
43 0.000
44 2.000
45 2.000
46 0.000
47 0.000
48 5.000
49 5.000
50 2.000
51 0.000
52 0.000
53 0.000
54 0.000
55 0.000
56 0.000
57 0.000
58 1.000
59 0.000
60 0.000
61 5.000
62 0.000
63 0.000
64 0.000
65 0.000
66 0.000
67 0.000
68 0.000
69 5.000
70 0.000
71 0.000
72 0.000
73 0.000
74 0.000
75 0.000
76 2.000
77 1.000
78 0.000
79 1.000
80 0.000
81 0.000
82 2.000
83 0.000
84 0.000
85 0.000
86 0.000
87 0.000
88 0.000
89 5.000
90 0.000
91 0.000
92 0.000
93 0.000
94 1.000
95 0.000
96 0.000
97 0.000
98 0.000
99 1.000
100 0.000
101 0.000
102 0.000
103 0.000
104 1.000
105 0.000
VEHICLE_SECTION
1 190.000 0.000 41.000
2 190.000 0.000 41.000
3 190.000 0.000 41.000
4 190.000 0.000 41.000
5 190.000 0.000 41.000
6 190.000 0.000 41.000
7 190.000 0.000 41.000
8 190.000 0.000 41.000
9 190.000 0.000 41.000
10 190.000 0.000 41.000
11 1143.000 0.000 245.000
12 1143.000 0.000 245.000
13 1143.000 0.000 245.000
14 1143.000 0.000 245.000
15 1143.000 0.000 245.000
16 1143.000 0.000 245.000
EOF
