NAME: pyvrp_X101_FSMFD
CUSTOMERS: 100
VEHICLES: 26
NODE_COORD_SECTION
0 365.000000 689.000000
1 146.000000 180.000000
2 792.000000 5.000000
3 658.000000 510.000000
4 461.000000 270.000000
5 299.000000 531.000000
6 812.000000 228.000000
7 643.000000 90.000000
8 615.000000 630.000000
9 258.000000 42.000000
10 616.000000 299.000000
11 475.000000 957.000000
12 425.000000 473.000000
13 406.000000 64.000000
14 656.000000 369.000000
15 202.000000 467.000000
16 318.000000 21.000000
17 579.000000 587.000000
18 458.000000 354.000000
19 575.000000 871.000000
20 47.000000 512.000000
21 568.000000 742.000000
22 128.000000 436.000000
23 546.000000 806.000000
24 197.000000 696.000000
25 615.000000 300.000000
26 852.000000 563.000000
27 772.000000 803.000000
28 678.000000 342.000000
29 916.000000 176.000000
30 390.000000 949.000000
31 113.000000 782.000000
32 226.000000 736.000000
33 119.000000 923.000000
34 584.000000 572.000000
35 134.000000 554.000000
36 912.000000 173.000000
37 827.000000 233.000000
38 851.000000 677.000000
39 598.000000 322.000000
40 627.000000 472.000000
41 94.000000 442.000000
42 688.000000 274.000000
43 977.000000 176.000000
44 597.000000 461.000000
45 931.000000 23.000000
46 170.000000 640.000000
47 941.000000 601.000000
48 873.000000 487.000000
49 797.000000 95.000000
50 451.000000 816.000000
51 866.000000 970.000000
52 833.000000 912.000000
53 106.000000 913.000000
54 260.000000 107.000000
55 332.000000 45.000000
56 685.000000 613.000000
57 728.000000 372.000000
58 487.000000 497.000000
59 702.000000 440.000000
60 717.000000 412.000000
61 635.000000 794.000000
62 927.000000 972.000000
63 635.000000 356.000000
64 634.000000 540.000000
65 658.000000 261.000000
66 303.000000 168.000000
67 707.000000 410.000000
68 254.000000 135.000000
69 346.000000 29.000000
70 75.000000 79.000000
71 893.000000 987.000000
72 729.000000 372.000000
73 29.000000 910.000000
74 356.000000 39.000000
75 274.000000 943.000000
76 322.000000 96.000000
77 664.000000 396.000000
78 704.000000 236.000000
79 415.000000 837.000000
80 576.000000 587.000000
81 750.000000 977.000000
82 726.000000 363.000000
83 861.000000 948.000000
84 302.000000 129.000000
85 415.000000 989.000000
86 199.000000 135.000000
87 801.000000 405.000000
88 679.000000 426.000000
89 994.000000 804.000000
90 311.000000 116.000000
91 739.000000 898.000000
92 268.000000 97.000000
93 176.000000 991.000000
94 688.000000 588.000000
95 107.000000 836.000000
96 708.000000 522.000000
97 679.000000 864.000000
98 985.000000 877.000000
99 954.000000 950.000000
100 615.000000 750.000000
DEMAND_SECTION
0 0.000000
1 38.000000
2 51.000000
3 73.000000
4 70.000000
5 58.000000
6 54.000000
7 1.000000
8 98.000000
9 62.000000
10 98.000000
11 25.000000
12 86.000000
13 46.000000
14 27.000000
15 17.000000
16 97.000000
17 74.000000
18 81.000000
19 62.000000
20 59.000000
21 23.000000
22 62.000000
23 66.000000
24 35.000000
25 53.000000
26 18.000000
27 87.000000
28 32.000000
29 4.000000
30 61.000000
31 95.000000
32 23.000000
33 15.000000
34 5.000000
35 53.000000
36 97.000000
37 70.000000
38 32.000000
39 27.000000
40 42.000000
41 67.000000
42 76.000000
43 15.000000
44 39.000000
45 14.000000
46 43.000000
47 11.000000
48 93.000000
49 53.000000
50 44.000000
51 80.000000
52 87.000000
53 97.000000
54 67.000000
55 72.000000
56 50.000000
57 8.000000
58 58.000000
59 55.000000
60 67.000000
61 89.000000
62 38.000000
63 65.000000
64 3.000000
65 5.000000
66 46.000000
67 100.000000
68 52.000000
69 28.000000
70 96.000000
71 18.000000
72 16.000000
73 7.000000
74 73.000000
75 76.000000
76 6.000000
77 64.000000
78 39.000000
79 86.000000
80 70.000000
81 14.000000
82 83.000000
83 96.000000
84 43.000000
85 12.000000
86 73.000000
87 2.000000
88 21.000000
89 18.000000
90 55.000000
91 75.000000
92 68.000000
93 100.000000
94 61.000000
95 24.000000
96 40.000000
97 48.000000
98 51.000000
99 78.000000
100 35.000000
PRIORITY_SECTION
0 0.000
1 0.000
2 2.000
3 1.000
4 0.000
5 0.000
6 0.000
7 2.000
8 1.000
9 5.000
10 0.000
11 0.000
12 0.000
13 0.000
14 0.000
15 0.000
16 0.000
17 0.000
18 0.000
19 2.000
20 0.000
21 2.000
22 2.000
23 2.000
24 0.000
25 0.000
26 0.000
27 0.000
28 0.000
29 0.000
30 0.000
31 0.000
32 0.000
33 0.000
34 0.000
35 0.000
36 1.000
37 0.000
38 0.000
39 0.000
40 0.000
41 0.000
42 0.000
43 0.000
44 2.000
45 2.000
46 0.000
47 0.000
48 5.000
49 5.000
50 2.000
51 0.000
52 0.000
53 0.000
54 0.000
55 0.000
56 0.000
57 0.000
58 1.000
59 0.000
60 0.000
61 5.000
62 0.000
63 0.000
64 0.000
65 0.000
66 0.000
67 0.000
68 0.000
69 5.000
70 0.000
71 0.000
72 0.000
73 0.000
74 0.000
75 0.000
76 2.000
77 1.000
78 0.000
79 1.000
80 0.000
81 0.000
82 2.000
83 0.000
84 0.000
85 0.000
86 0.000
87 0.000
88 0.000
89 5.000
90 0.000
91 0.000
92 0.000
93 0.000
94 1.000
95 0.000
96 0.000
97 0.000
98 0.000
99 1.000
100 0.000
VEHICLE_SECTION
1 141.000 24600.000 83.000
2 141.000 24600.000 83.000
3 141.000 24600.000 83.000
4 141.000 24600.000 83.000
5 141.000 24600.000 83.000
6 141.000 24600.000 83.000
7 141.000 24600.000 83.000
8 141.000 24600.000 83.000
9 141.000 24600.000 83.000
10 141.000 24600.000 83.000
11 283.000 57500.000 116.000
12 283.000 57500.000 116.000
13 283.000 57500.000 116.000
14 283.000 57500.000 116.000
15 283.000 57500.000 116.000
16 283.000 57500.000 116.000
17 283.000 57500.000 116.000
18 283.000 57500.000 116.000
19 283.000 57500.000 116.000
20 283.000 57500.000 116.000
21 283.000 57500.000 116.000
22 283.000 57500.000 116.000
23 283.000 57500.000 116.000
24 283.000 57500.000 116.000
25 283.000 57500.000 116.000
26 283.000 57500.000 116.000
EOF
